@relation ThresholdCurve

@attribute Instance_number numeric
@attribute 'True Positives' numeric
@attribute 'False Negatives' numeric
@attribute 'False Positives' numeric
@attribute 'True Negatives' numeric
@attribute 'False Positive Rate' numeric
@attribute 'True Positive Rate' numeric
@attribute Precision numeric
@attribute Recall numeric
@attribute Fallout numeric
@attribute FMeasure numeric
@attribute 'Sample Size' numeric
@attribute Lift numeric
@attribute Threshold numeric

@data
0,443,0,442,0,1,1,0.500565,1,0.499435,0.667169,1,1,0.109749
1,443,0,441,1,0.997738,1,0.501131,1,0.498869,0.667671,0.99887,1.001131,0.122657
2,443,0,440,2,0.995475,1,0.501699,1,0.498301,0.668175,0.99774,1.002265,0.134258
3,443,0,439,3,0.993213,1,0.502268,1,0.497732,0.668679,0.99661,1.003401,0.138806
4,443,0,438,4,0.99095,1,0.502838,1,0.497162,0.669184,0.99548,1.00454,0.141852
5,443,0,437,5,0.988688,1,0.503409,1,0.496591,0.66969,0.99435,1.005682,0.143066
6,443,0,436,6,0.986425,1,0.503982,1,0.496018,0.670197,0.99322,1.006826,0.143379
7,443,0,435,7,0.984163,1,0.504556,1,0.495444,0.670704,0.99209,1.007973,0.14424
8,443,0,434,8,0.9819,1,0.505131,1,0.494869,0.671212,0.99096,1.009122,0.146944
9,443,0,433,9,0.979638,1,0.505708,1,0.494292,0.671721,0.989831,1.010274,0.148303
10,443,0,432,10,0.977376,1,0.506286,1,0.493714,0.672231,0.988701,1.011429,0.148462
11,443,0,431,11,0.975113,1,0.506865,1,0.493135,0.672741,0.987571,1.012586,0.148889
12,443,0,430,12,0.972851,1,0.507446,1,0.492554,0.673252,0.986441,1.013746,0.151386
13,443,0,429,13,0.970588,1,0.508028,1,0.491972,0.673764,0.985311,1.014908,0.152055
14,443,0,428,14,0.968326,1,0.508611,1,0.491389,0.674277,0.984181,1.016073,0.15512
15,443,0,427,15,0.966063,1,0.509195,1,0.490805,0.674791,0.983051,1.017241,0.159772
16,443,0,426,16,0.963801,1,0.509781,1,0.490219,0.675305,0.981921,1.018412,0.163462
17,443,0,425,17,0.961538,1,0.510369,1,0.489631,0.67582,0.980791,1.019585,0.163868
18,443,0,424,18,0.959276,1,0.510957,1,0.489043,0.676336,0.979661,1.020761,0.164493
19,443,0,423,19,0.957014,1,0.511547,1,0.488453,0.676853,0.978531,1.02194,0.168319
20,443,0,422,20,0.954751,1,0.512139,1,0.487861,0.67737,0.977401,1.023121,0.170394
21,443,0,421,21,0.952489,1,0.512731,1,0.487269,0.677888,0.976271,1.024306,0.171409
22,443,0,420,22,0.950226,1,0.513326,1,0.486674,0.678407,0.975141,1.025492,0.173359
23,443,0,419,23,0.947964,1,0.513921,1,0.486079,0.678927,0.974011,1.026682,0.178181
24,443,0,418,24,0.945701,1,0.514518,1,0.485482,0.679448,0.972881,1.027875,0.178301
25,443,0,417,25,0.943439,1,0.515116,1,0.484884,0.679969,0.971751,1.02907,0.179413
26,443,0,416,26,0.941176,1,0.515716,1,0.484284,0.680492,0.970621,1.030268,0.180809
27,443,0,415,27,0.938914,1,0.516317,1,0.483683,0.681015,0.969492,1.031469,0.181327
28,443,0,414,28,0.936652,1,0.516919,1,0.483081,0.681538,0.968362,1.032672,0.181536
29,443,0,413,29,0.934389,1,0.517523,1,0.482477,0.682063,0.967232,1.033879,0.181647
30,443,0,412,30,0.932127,1,0.518129,1,0.481871,0.682589,0.966102,1.035088,0.183916
31,443,0,411,31,0.929864,1,0.518735,1,0.481265,0.683115,0.964972,1.0363,0.184341
32,443,0,410,32,0.927602,1,0.519343,1,0.480657,0.683642,0.963842,1.037515,0.185039
33,443,0,409,33,0.925339,1,0.519953,1,0.480047,0.68417,0.962712,1.038732,0.187241
34,443,0,408,34,0.923077,1,0.520564,1,0.479436,0.684699,0.961582,1.039953,0.188749
35,443,0,407,35,0.920814,1,0.521176,1,0.478824,0.685228,0.960452,1.041176,0.190426
36,443,0,406,36,0.918552,1,0.52179,1,0.47821,0.685759,0.959322,1.042403,0.192001
37,443,0,405,37,0.91629,1,0.522406,1,0.477594,0.68629,0.958192,1.043632,0.193078
38,443,0,404,38,0.914027,1,0.523022,1,0.476978,0.686822,0.957062,1.044864,0.193181
39,443,0,403,39,0.911765,1,0.523641,1,0.476359,0.687355,0.955932,1.046099,0.193184
40,443,0,402,40,0.909502,1,0.52426,1,0.47574,0.687888,0.954802,1.047337,0.195149
41,442,1,402,40,0.909502,0.997743,0.523697,0.997743,0.476303,0.686869,0.953672,1.046211,0.195186
42,442,1,401,41,0.90724,0.997743,0.524318,0.997743,0.475682,0.687403,0.952542,1.047452,0.195699
43,441,2,401,41,0.90724,0.995485,0.523753,0.995485,0.476247,0.686381,0.951412,1.046324,0.195781
44,441,2,400,42,0.904977,0.995485,0.524376,0.995485,0.475624,0.686916,0.950282,1.047568,0.196085
45,441,2,399,43,0.902715,0.995485,0.525,0.995485,0.475,0.687451,0.949153,1.048815,0.198308
46,441,2,398,44,0.900452,0.995485,0.525626,0.995485,0.474374,0.687988,0.948023,1.050065,0.199969
47,441,2,397,45,0.89819,0.995485,0.526253,0.995485,0.473747,0.688525,0.946893,1.051318,0.200768
48,441,2,396,46,0.895928,0.995485,0.526882,0.995485,0.473118,0.689062,0.945763,1.052574,0.201882
49,441,2,395,47,0.893665,0.995485,0.527512,0.995485,0.472488,0.689601,0.944633,1.053833,0.20229
50,441,2,394,48,0.891403,0.995485,0.528144,0.995485,0.471856,0.690141,0.943503,1.055095,0.203008
51,441,2,393,49,0.88914,0.995485,0.528777,0.995485,0.471223,0.690681,0.942373,1.05636,0.203656
52,441,2,392,50,0.886878,0.995485,0.529412,0.995485,0.470588,0.691223,0.941243,1.057628,0.203929
53,441,2,391,51,0.884615,0.995485,0.530048,0.995485,0.469952,0.691765,0.940113,1.0589,0.204108
54,441,2,390,52,0.882353,0.995485,0.530686,0.995485,0.469314,0.692308,0.938983,1.060174,0.204448
55,441,2,389,53,0.88009,0.995485,0.531325,0.995485,0.468675,0.692852,0.937853,1.061451,0.204871
56,441,2,388,54,0.877828,0.995485,0.531966,0.995485,0.468034,0.693396,0.936723,1.062732,0.20541
57,441,2,387,55,0.875566,0.995485,0.532609,0.995485,0.467391,0.693942,0.935593,1.064015,0.206623
58,441,2,386,56,0.873303,0.995485,0.533253,0.995485,0.466747,0.694488,0.934463,1.065302,0.206832
59,441,2,385,57,0.871041,0.995485,0.533898,0.995485,0.466102,0.695035,0.933333,1.066591,0.207004
60,441,2,384,58,0.868778,0.995485,0.534545,0.995485,0.465455,0.695584,0.932203,1.067884,0.210263
61,441,2,383,59,0.866516,0.995485,0.535194,0.995485,0.464806,0.696133,0.931073,1.06918,0.212102
62,441,2,382,60,0.864253,0.995485,0.535844,0.995485,0.464156,0.696682,0.929944,1.070479,0.213628
63,441,2,381,61,0.861991,0.995485,0.536496,0.995485,0.463504,0.697233,0.928814,1.071782,0.214779
64,441,2,380,62,0.859729,0.995485,0.53715,0.995485,0.46285,0.697785,0.927684,1.073087,0.21671
65,441,2,379,63,0.857466,0.995485,0.537805,0.995485,0.462195,0.698337,0.926554,1.074396,0.217158
66,440,3,379,63,0.857466,0.993228,0.537241,0.993228,0.462759,0.697306,0.925424,1.073268,0.217429
67,440,3,378,64,0.855204,0.993228,0.537897,0.993228,0.462103,0.697859,0.924294,1.07458,0.219814
68,440,3,377,65,0.852941,0.993228,0.538556,0.993228,0.461444,0.698413,0.923164,1.075896,0.220252
69,440,3,376,66,0.850679,0.993228,0.539216,0.993228,0.460784,0.698967,0.922034,1.077214,0.221286
70,440,3,375,67,0.848416,0.993228,0.539877,0.993228,0.460123,0.699523,0.920904,1.078536,0.222151
71,440,3,374,68,0.846154,0.993228,0.540541,0.993228,0.459459,0.70008,0.919774,1.079861,0.224137
72,440,3,373,69,0.843891,0.993228,0.541205,0.993228,0.458795,0.700637,0.918644,1.081189,0.224725
73,440,3,372,70,0.841629,0.993228,0.541872,0.993228,0.458128,0.701195,0.917514,1.082521,0.228148
74,440,3,371,71,0.839367,0.993228,0.54254,0.993228,0.45746,0.701754,0.916384,1.083855,0.228627
75,440,3,370,72,0.837104,0.993228,0.54321,0.993228,0.45679,0.702314,0.915254,1.085194,0.229381
76,440,3,369,73,0.834842,0.993228,0.543881,0.993228,0.456119,0.702875,0.914124,1.086535,0.229771
77,440,3,368,74,0.832579,0.993228,0.544554,0.993228,0.455446,0.703437,0.912994,1.08788,0.229888
78,440,3,367,75,0.830317,0.993228,0.545229,0.993228,0.454771,0.704,0.911864,1.089228,0.231071
79,439,4,367,75,0.830317,0.990971,0.544665,0.990971,0.455335,0.702962,0.910734,1.088101,0.232961
80,439,4,366,76,0.828054,0.990971,0.545342,0.990971,0.454658,0.703526,0.909605,1.089452,0.235141
81,439,4,365,77,0.825792,0.990971,0.54602,0.990971,0.45398,0.70409,0.908475,1.090807,0.235302
82,439,4,364,78,0.823529,0.990971,0.5467,0.990971,0.4533,0.704655,0.907345,1.092166,0.235702
83,439,4,363,79,0.821267,0.990971,0.547382,0.990971,0.452618,0.705221,0.906215,1.093527,0.237869
84,439,4,362,80,0.819005,0.990971,0.548065,0.990971,0.451935,0.705788,0.905085,1.094893,0.242733
85,439,4,361,81,0.816742,0.990971,0.54875,0.990971,0.45125,0.706356,0.903955,1.096261,0.246414
86,438,5,361,81,0.816742,0.988713,0.548185,0.988713,0.451815,0.705314,0.902825,1.095133,0.248327
87,438,5,360,82,0.81448,0.988713,0.548872,0.988713,0.451128,0.705882,0.901695,1.096505,0.248772
88,438,5,359,83,0.812217,0.988713,0.549561,0.988713,0.450439,0.706452,0.900565,1.097881,0.248778
89,438,5,358,84,0.809955,0.988713,0.550251,0.988713,0.449749,0.707022,0.899435,1.09926,0.249153
90,438,5,357,85,0.807692,0.988713,0.550943,0.988713,0.449057,0.707593,0.898305,1.100643,0.249311
91,438,5,356,86,0.80543,0.988713,0.551637,0.988713,0.448363,0.708165,0.897175,1.102029,0.250924
92,438,5,355,87,0.803167,0.988713,0.552333,0.988713,0.447667,0.708738,0.896045,1.103419,0.251911
93,438,5,354,88,0.800905,0.988713,0.55303,0.988713,0.44697,0.709312,0.894915,1.104812,0.252214
94,438,5,353,89,0.798643,0.988713,0.553729,0.988713,0.446271,0.709887,0.893785,1.106209,0.252832
95,437,6,353,89,0.798643,0.986456,0.553165,0.986456,0.446835,0.70884,0.892655,1.10508,0.253027
96,437,6,352,90,0.79638,0.986456,0.553866,0.986456,0.446134,0.709416,0.891525,1.106481,0.253038
97,436,7,352,90,0.79638,0.984199,0.553299,0.984199,0.446701,0.708367,0.890395,1.10535,0.253202
98,436,7,351,91,0.794118,0.984199,0.554003,0.984199,0.445997,0.708943,0.889266,1.106755,0.2539
99,435,8,351,91,0.794118,0.981941,0.553435,0.981941,0.446565,0.707893,0.888136,1.105621,0.253963
100,434,9,351,91,0.794118,0.979684,0.552866,0.979684,0.447134,0.70684,0.887006,1.104484,0.254185
101,434,9,350,92,0.791855,0.979684,0.553571,0.979684,0.446429,0.707416,0.885876,1.105893,0.25573
102,434,9,349,93,0.789593,0.979684,0.554278,0.979684,0.445722,0.707993,0.884746,1.107306,0.257725
103,434,9,348,94,0.78733,0.979684,0.554987,0.979684,0.445013,0.708571,0.883616,1.108722,0.258299
104,434,9,347,95,0.785068,0.979684,0.555698,0.979684,0.444302,0.70915,0.882486,1.110141,0.258726
105,433,10,347,95,0.785068,0.977427,0.555128,0.977427,0.444872,0.708095,0.881356,1.109003,0.259565
106,433,10,346,96,0.782805,0.977427,0.555841,0.977427,0.444159,0.708674,0.880226,1.110427,0.259684
107,433,10,345,97,0.780543,0.977427,0.556555,0.977427,0.443445,0.709255,0.879096,1.111854,0.260252
108,433,10,344,98,0.778281,0.977427,0.557272,0.977427,0.442728,0.709836,0.877966,1.113285,0.26117
109,433,10,343,99,0.776018,0.977427,0.55799,0.977427,0.44201,0.710418,0.876836,1.11472,0.261458
110,432,11,343,99,0.776018,0.975169,0.557419,0.975169,0.442581,0.70936,0.875706,1.11358,0.262057
111,432,11,342,100,0.773756,0.975169,0.55814,0.975169,0.44186,0.709942,0.874576,1.115019,0.262844
112,432,11,341,101,0.771493,0.975169,0.558862,0.975169,0.441138,0.710526,0.873446,1.116462,0.267796
113,432,11,340,102,0.769231,0.975169,0.559585,0.975169,0.440415,0.711111,0.872316,1.117908,0.268446
114,432,11,339,103,0.766968,0.975169,0.560311,0.975169,0.439689,0.711697,0.871186,1.119358,0.269107
115,432,11,338,104,0.764706,0.975169,0.561039,0.975169,0.438961,0.712284,0.870056,1.120811,0.26932
116,432,11,337,105,0.762443,0.975169,0.561769,0.975169,0.438231,0.712871,0.868927,1.122269,0.269764
117,432,11,336,106,0.760181,0.975169,0.5625,0.975169,0.4375,0.71346,0.867797,1.12373,0.269864
118,432,11,335,107,0.757919,0.975169,0.563233,0.975169,0.436767,0.71405,0.866667,1.125195,0.270852
119,432,11,334,108,0.755656,0.975169,0.563969,0.975169,0.436031,0.71464,0.865537,1.126664,0.271894
120,432,11,333,109,0.753394,0.975169,0.564706,0.975169,0.435294,0.715232,0.864407,1.128137,0.273465
121,432,11,332,110,0.751131,0.975169,0.565445,0.975169,0.434555,0.715824,0.863277,1.129614,0.275816
122,432,11,331,111,0.748869,0.975169,0.566186,0.975169,0.433814,0.716418,0.862147,1.131094,0.278157
123,432,11,330,112,0.746606,0.975169,0.566929,0.975169,0.433071,0.717012,0.861017,1.132579,0.278526
124,432,11,329,113,0.744344,0.975169,0.567674,0.975169,0.432326,0.717608,0.859887,1.134067,0.278982
125,432,11,328,114,0.742081,0.975169,0.568421,0.975169,0.431579,0.718204,0.858757,1.135559,0.280379
126,432,11,327,115,0.739819,0.975169,0.56917,0.975169,0.43083,0.718802,0.857627,1.137055,0.282185
127,432,11,326,116,0.737557,0.975169,0.569921,0.975169,0.430079,0.7194,0.856497,1.138555,0.282904
128,432,11,325,117,0.735294,0.975169,0.570674,0.975169,0.429326,0.72,0.855367,1.140059,0.28449
129,431,12,325,117,0.735294,0.972912,0.570106,0.972912,0.429894,0.718932,0.854237,1.138925,0.284508
130,431,12,324,118,0.733032,0.972912,0.570861,0.972912,0.429139,0.719533,0.853107,1.140433,0.285193
131,431,12,323,119,0.730769,0.972912,0.571618,0.972912,0.428382,0.720134,0.851977,1.141946,0.287383
132,431,12,322,120,0.728507,0.972912,0.572377,0.972912,0.427623,0.720736,0.850847,1.143462,0.287617
133,431,12,321,121,0.726244,0.972912,0.573138,0.972912,0.426862,0.721339,0.849718,1.144983,0.287681
134,431,12,320,122,0.723982,0.972912,0.573901,0.972912,0.426099,0.721943,0.848588,1.146507,0.28805
135,431,12,319,123,0.721719,0.972912,0.574667,0.972912,0.425333,0.722548,0.847458,1.148036,0.288513
136,431,12,318,124,0.719457,0.972912,0.575434,0.972912,0.424566,0.723154,0.846328,1.149569,0.288966
137,431,12,317,125,0.717195,0.972912,0.576203,0.972912,0.423797,0.723762,0.845198,1.151106,0.288992
138,431,12,316,126,0.714932,0.972912,0.576975,0.972912,0.423025,0.72437,0.844068,1.152647,0.290793
139,431,12,315,127,0.71267,0.972912,0.577748,0.972912,0.422252,0.724979,0.842938,1.154192,0.291332
140,430,13,315,127,0.71267,0.970655,0.577181,0.970655,0.422819,0.723906,0.841808,1.15306,0.291379
141,429,14,315,127,0.71267,0.968397,0.576613,0.968397,0.423387,0.722831,0.840678,1.151924,0.291805
142,429,14,314,128,0.710407,0.968397,0.577389,0.968397,0.422611,0.72344,0.839548,1.153475,0.292174
143,429,14,313,129,0.708145,0.968397,0.578167,0.968397,0.421833,0.724051,0.838418,1.155029,0.292358
144,428,15,313,129,0.708145,0.96614,0.577598,0.96614,0.422402,0.722973,0.837288,1.153892,0.292812
145,428,15,312,130,0.705882,0.96614,0.578378,0.96614,0.421622,0.723584,0.836158,1.155451,0.293138
146,428,15,311,131,0.70362,0.96614,0.579161,0.96614,0.420839,0.724196,0.835028,1.157015,0.293863
147,428,15,310,132,0.701357,0.96614,0.579946,0.96614,0.420054,0.724809,0.833898,1.158582,0.294244
148,428,15,309,133,0.699095,0.96614,0.580733,0.96614,0.419267,0.725424,0.832768,1.160154,0.294491
149,427,16,309,133,0.699095,0.963883,0.580163,0.963883,0.419837,0.724343,0.831638,1.159016,0.294674
150,426,17,309,133,0.699095,0.961625,0.579592,0.961625,0.420408,0.72326,0.830508,1.157875,0.295226
151,426,17,308,134,0.696833,0.961625,0.580381,0.961625,0.419619,0.723874,0.829379,1.159453,0.29527
152,426,17,307,135,0.69457,0.961625,0.581173,0.961625,0.418827,0.72449,0.828249,1.161035,0.295537
153,426,17,306,136,0.692308,0.961625,0.581967,0.961625,0.418033,0.725106,0.827119,1.162621,0.295814
154,426,17,305,137,0.690045,0.961625,0.582763,0.961625,0.417237,0.725724,0.825989,1.164211,0.296513
155,426,17,304,138,0.687783,0.961625,0.583562,0.961625,0.416438,0.726343,0.824859,1.165806,0.297207
156,426,17,303,139,0.68552,0.961625,0.584362,0.961625,0.415638,0.726962,0.823729,1.167405,0.297597
157,426,17,302,140,0.683258,0.961625,0.585165,0.961625,0.414835,0.727583,0.822599,1.169009,0.30015
158,426,17,301,141,0.680995,0.961625,0.58597,0.961625,0.41403,0.728205,0.821469,1.170617,0.300754
159,426,17,300,142,0.678733,0.961625,0.586777,0.961625,0.413223,0.728828,0.820339,1.172229,0.301822
160,426,17,299,143,0.676471,0.961625,0.587586,0.961625,0.412414,0.729452,0.819209,1.173846,0.303019
161,426,17,298,144,0.674208,0.961625,0.588398,0.961625,0.411602,0.730077,0.818079,1.175467,0.303825
162,426,17,297,145,0.671946,0.961625,0.589212,0.961625,0.410788,0.730703,0.816949,1.177093,0.30448
163,426,17,296,146,0.669683,0.961625,0.590028,0.961625,0.409972,0.73133,0.815819,1.178724,0.304576
164,426,17,295,147,0.667421,0.961625,0.590846,0.961625,0.409154,0.731959,0.814689,1.180358,0.304599
165,426,17,294,148,0.665158,0.961625,0.591667,0.961625,0.408333,0.732588,0.813559,1.181998,0.305212
166,425,18,294,148,0.665158,0.959368,0.591099,0.959368,0.408901,0.731497,0.812429,1.180863,0.305354
167,425,18,293,149,0.662896,0.959368,0.591922,0.959368,0.408078,0.732127,0.811299,1.182508,0.30605
168,424,19,293,149,0.662896,0.957111,0.591353,0.957111,0.408647,0.731034,0.810169,1.181371,0.306078
169,424,19,292,150,0.660633,0.957111,0.592179,0.957111,0.407821,0.731665,0.80904,1.183021,0.306355
170,424,19,291,151,0.658371,0.957111,0.593007,0.957111,0.406993,0.732297,0.80791,1.184675,0.306846
171,424,19,290,152,0.656109,0.957111,0.593838,0.957111,0.406162,0.73293,0.80678,1.186335,0.306923
172,423,20,290,152,0.656109,0.954853,0.593268,0.954853,0.406732,0.731834,0.80565,1.185197,0.30706
173,423,20,289,153,0.653846,0.954853,0.594101,0.954853,0.405899,0.732468,0.80452,1.186861,0.307234
174,422,21,289,153,0.653846,0.952596,0.59353,0.952596,0.40647,0.731369,0.80339,1.185721,0.309829
175,422,21,288,154,0.651584,0.952596,0.594366,0.952596,0.405634,0.732003,0.80226,1.187391,0.310672
176,421,22,288,154,0.651584,0.950339,0.593794,0.950339,0.406206,0.730903,0.80113,1.186248,0.310689
177,421,22,287,155,0.649321,0.950339,0.594633,0.950339,0.405367,0.731538,0.8,1.187923,0.311078
178,421,22,286,156,0.647059,0.950339,0.595474,0.950339,0.404526,0.732174,0.79887,1.189603,0.312611
179,421,22,285,157,0.644796,0.950339,0.596317,0.950339,0.403683,0.732811,0.79774,1.191288,0.314009
180,421,22,284,158,0.642534,0.950339,0.597163,0.950339,0.402837,0.733449,0.79661,1.192978,0.31463
181,421,22,283,159,0.640271,0.950339,0.598011,0.950339,0.401989,0.734089,0.79548,1.194673,0.31516
182,421,22,282,160,0.638009,0.950339,0.598862,0.950339,0.401138,0.734729,0.79435,1.196372,0.315584
183,420,23,282,160,0.638009,0.948081,0.598291,0.948081,0.401709,0.733624,0.79322,1.195231,0.315629
184,420,23,281,161,0.635747,0.948081,0.599144,0.948081,0.400856,0.734266,0.79209,1.196936,0.315658
185,420,23,280,162,0.633484,0.948081,0.6,0.948081,0.4,0.734908,0.79096,1.198646,0.31609
186,420,23,279,163,0.631222,0.948081,0.600858,0.948081,0.399142,0.735552,0.789831,1.20036,0.317022
187,419,24,279,163,0.631222,0.945824,0.600287,0.945824,0.399713,0.734443,0.788701,1.199218,0.318942
188,419,24,278,164,0.628959,0.945824,0.601148,0.945824,0.398852,0.735088,0.787571,1.200939,0.319211
189,419,24,277,165,0.626697,0.945824,0.602011,0.945824,0.397989,0.735733,0.786441,1.202664,0.320404
190,419,24,276,166,0.624434,0.945824,0.602878,0.945824,0.397122,0.73638,0.785311,1.204394,0.321814
191,419,24,275,167,0.622172,0.945824,0.603746,0.945824,0.396254,0.737027,0.784181,1.20613,0.322884
192,419,24,274,168,0.61991,0.945824,0.604618,0.945824,0.395382,0.737676,0.783051,1.20787,0.323909
193,419,24,273,169,0.617647,0.945824,0.605491,0.945824,0.394509,0.738326,0.781921,1.209616,0.324651
194,419,24,272,170,0.615385,0.945824,0.606368,0.945824,0.393632,0.738977,0.780791,1.211366,0.325748
195,419,24,271,171,0.613122,0.945824,0.607246,0.945824,0.392754,0.739629,0.779661,1.213122,0.325805
196,419,24,270,172,0.61086,0.945824,0.608128,0.945824,0.391872,0.740283,0.778531,1.214883,0.325876
197,419,24,269,173,0.608597,0.945824,0.609012,0.945824,0.390988,0.740937,0.777401,1.216649,0.326024
198,419,24,268,174,0.606335,0.945824,0.609898,0.945824,0.390102,0.741593,0.776271,1.218419,0.326272
199,419,24,267,175,0.604072,0.945824,0.610787,0.945824,0.389213,0.74225,0.775141,1.220196,0.32751
200,419,24,266,176,0.60181,0.945824,0.611679,0.945824,0.388321,0.742908,0.774011,1.221977,0.328297
201,419,24,265,177,0.599548,0.945824,0.612573,0.945824,0.387427,0.743567,0.772881,1.223763,0.330911
202,419,24,264,178,0.597285,0.945824,0.61347,0.945824,0.38653,0.744227,0.771751,1.225555,0.332771
203,419,24,263,179,0.595023,0.945824,0.61437,0.945824,0.38563,0.744889,0.770621,1.227352,0.333742
204,419,24,262,180,0.59276,0.945824,0.615272,0.945824,0.384728,0.745552,0.769492,1.229154,0.334854
205,419,24,261,181,0.590498,0.945824,0.616176,0.945824,0.383824,0.746215,0.768362,1.230962,0.335687
206,418,25,261,181,0.590498,0.943567,0.615611,0.943567,0.384389,0.745098,0.767232,1.229833,0.335742
207,417,26,261,181,0.590498,0.941309,0.615044,0.941309,0.384956,0.743979,0.766102,1.2287,0.336088
208,416,27,261,181,0.590498,0.939052,0.614476,0.939052,0.385524,0.742857,0.764972,1.227564,0.336186
209,416,27,260,182,0.588235,0.939052,0.615385,0.939052,0.384615,0.743521,0.763842,1.22938,0.336709
210,416,27,259,183,0.585973,0.939052,0.616296,0.939052,0.383704,0.744186,0.762712,1.231201,0.337283
211,416,27,258,184,0.58371,0.939052,0.617211,0.939052,0.382789,0.744852,0.761582,1.233028,0.337606
212,416,27,257,185,0.581448,0.939052,0.618128,0.939052,0.381872,0.74552,0.760452,1.23486,0.339132
213,416,27,256,186,0.579186,0.939052,0.619048,0.939052,0.380952,0.746188,0.759322,1.236698,0.339561
214,416,27,255,187,0.576923,0.939052,0.61997,0.939052,0.38003,0.746858,0.758192,1.238541,0.34041
215,415,28,255,187,0.576923,0.936795,0.619403,0.936795,0.380597,0.745732,0.757062,1.237408,0.341116
216,415,28,254,188,0.574661,0.936795,0.620329,0.936795,0.379671,0.746403,0.755932,1.239257,0.341119
217,415,28,253,189,0.572398,0.936795,0.621257,0.936795,0.378743,0.747075,0.754802,1.241113,0.341418
218,415,28,252,190,0.570136,0.936795,0.622189,0.936795,0.377811,0.747748,0.753672,1.242973,0.341506
219,415,28,251,191,0.567873,0.936795,0.623123,0.936795,0.376877,0.748422,0.752542,1.24484,0.34208
220,415,28,250,192,0.565611,0.936795,0.62406,0.936795,0.37594,0.749097,0.751412,1.246712,0.342261
221,414,29,250,192,0.565611,0.934537,0.623494,0.934537,0.376506,0.747967,0.750282,1.245581,0.342578
222,413,30,250,192,0.565611,0.93228,0.622926,0.93228,0.377074,0.746835,0.749153,1.244446,0.342909
223,413,30,249,193,0.563348,0.93228,0.623867,0.93228,0.376133,0.747511,0.748023,1.246326,0.343306
224,412,31,249,193,0.563348,0.930023,0.623298,0.930023,0.376702,0.746377,0.746893,1.245189,0.343513
225,412,31,248,194,0.561086,0.930023,0.624242,0.930023,0.375758,0.747053,0.745763,1.247076,0.34471
226,412,31,247,195,0.558824,0.930023,0.62519,0.930023,0.37481,0.747731,0.744633,1.248968,0.344915
227,412,31,246,196,0.556561,0.930023,0.62614,0.930023,0.37386,0.748411,0.743503,1.250866,0.345658
228,412,31,245,197,0.554299,0.930023,0.627093,0.930023,0.372907,0.749091,0.742373,1.25277,0.345815
229,412,31,244,198,0.552036,0.930023,0.628049,0.930023,0.371951,0.749773,0.741243,1.25468,0.345838
230,412,31,243,199,0.549774,0.930023,0.629008,0.930023,0.370992,0.750455,0.740113,1.256595,0.346708
231,412,31,242,200,0.547511,0.930023,0.629969,0.930023,0.370031,0.751139,0.738983,1.258517,0.348129
232,412,31,241,201,0.545249,0.930023,0.630934,0.930023,0.369066,0.751825,0.737853,1.260444,0.348216
233,412,31,240,202,0.542986,0.930023,0.631902,0.930023,0.368098,0.752511,0.736723,1.262377,0.348366
234,412,31,239,203,0.540724,0.930023,0.632873,0.930023,0.367127,0.753199,0.735593,1.264316,0.348489
235,411,32,239,203,0.540724,0.927765,0.632308,0.927765,0.367692,0.752059,0.734463,1.263188,0.349678
236,410,33,239,203,0.540724,0.925508,0.631741,0.925508,0.368259,0.750916,0.733333,1.262056,0.350198
237,410,33,238,204,0.538462,0.925508,0.632716,0.925508,0.367284,0.751604,0.732203,1.264004,0.351221
238,410,33,237,205,0.536199,0.925508,0.633694,0.925508,0.366306,0.752294,0.731073,1.265957,0.351498
239,410,33,236,206,0.533937,0.925508,0.634675,0.925508,0.365325,0.752984,0.729944,1.267917,0.353134
240,409,34,236,206,0.533937,0.923251,0.634109,0.923251,0.365891,0.751838,0.728814,1.266786,0.353698
241,409,34,235,207,0.531674,0.923251,0.635093,0.923251,0.364907,0.75253,0.727684,1.268753,0.35413
242,408,35,235,207,0.531674,0.920993,0.634526,0.920993,0.365474,0.751381,0.726554,1.267619,0.355791
243,408,35,234,208,0.529412,0.920993,0.635514,0.920993,0.364486,0.752074,0.725424,1.269593,0.356745
244,408,35,233,209,0.527149,0.920993,0.636505,0.920993,0.363495,0.752768,0.724294,1.271574,0.357146
245,408,35,232,210,0.524887,0.920993,0.6375,0.920993,0.3625,0.753463,0.723164,1.273561,0.357494
246,407,36,232,210,0.524887,0.918736,0.636933,0.918736,0.363067,0.752311,0.722034,1.272428,0.358737
247,406,37,232,210,0.524887,0.916479,0.636364,0.916479,0.363636,0.751156,0.720904,1.271291,0.360433
248,405,38,232,210,0.524887,0.914221,0.635793,0.914221,0.364207,0.75,0.719774,1.27015,0.36055
249,404,39,232,210,0.524887,0.911964,0.63522,0.911964,0.36478,0.748842,0.718644,1.269006,0.360945
250,403,40,232,210,0.524887,0.909707,0.634646,0.909707,0.365354,0.747681,0.717514,1.267859,0.361941
251,402,41,232,210,0.524887,0.907449,0.634069,0.907449,0.365931,0.746518,0.716384,1.266707,0.362302
252,401,42,232,210,0.524887,0.905192,0.633491,0.905192,0.366509,0.745353,0.715254,1.265553,0.363797
253,401,42,231,211,0.522624,0.905192,0.634494,0.905192,0.365506,0.746047,0.714124,1.267555,0.364453
254,401,42,230,212,0.520362,0.905192,0.635499,0.905192,0.364501,0.746741,0.712994,1.269564,0.365064
255,401,42,229,213,0.5181,0.905192,0.636508,0.905192,0.363492,0.747437,0.711864,1.271579,0.366177
256,400,43,229,213,0.5181,0.902935,0.63593,0.902935,0.36407,0.746269,0.710734,1.270425,0.366489
257,400,43,228,214,0.515837,0.902935,0.636943,0.902935,0.363057,0.746965,0.709605,1.272448,0.366693
258,400,43,227,215,0.513575,0.902935,0.637959,0.902935,0.362041,0.747664,0.708475,1.274477,0.367645
259,399,44,227,215,0.513575,0.900677,0.63738,0.900677,0.36262,0.746492,0.707345,1.273322,0.367652
260,399,44,226,216,0.511312,0.900677,0.6384,0.900677,0.3616,0.747191,0.706215,1.275359,0.369196
261,399,44,225,217,0.50905,0.900677,0.639423,0.900677,0.360577,0.747891,0.705085,1.277403,0.369315
262,399,44,224,218,0.506787,0.900677,0.640449,0.900677,0.359551,0.748593,0.703955,1.279453,0.369327
263,399,44,223,219,0.504525,0.900677,0.641479,0.900677,0.358521,0.749296,0.702825,1.28151,0.369829
264,399,44,222,220,0.502262,0.900677,0.642512,0.900677,0.357488,0.75,0.701695,1.283574,0.369831
265,399,44,221,221,0.5,0.900677,0.643548,0.900677,0.356452,0.750706,0.700565,1.285644,0.37052
266,399,44,220,222,0.497738,0.900677,0.644588,0.900677,0.355412,0.751412,0.699435,1.287721,0.37162
267,399,44,219,223,0.495475,0.900677,0.645631,0.900677,0.354369,0.752121,0.698305,1.289805,0.372329
268,399,44,218,224,0.493213,0.900677,0.646677,0.900677,0.353323,0.75283,0.697175,1.291895,0.373278
269,399,44,217,225,0.49095,0.900677,0.647727,0.900677,0.352273,0.753541,0.696045,1.293992,0.373425
270,398,45,217,225,0.49095,0.89842,0.647154,0.89842,0.352846,0.752363,0.694915,1.292848,0.373748
271,398,45,216,226,0.488688,0.89842,0.648208,0.89842,0.351792,0.753075,0.693785,1.294954,0.374045
272,397,46,216,226,0.488688,0.896163,0.647635,0.896163,0.352365,0.751894,0.692655,1.293807,0.374603
273,397,46,215,227,0.486425,0.896163,0.648693,0.896163,0.351307,0.752607,0.691525,1.295921,0.375138
274,396,47,215,227,0.486425,0.893905,0.648118,0.893905,0.351882,0.751423,0.690395,1.294773,0.37528
275,395,48,215,227,0.486425,0.891648,0.647541,0.891648,0.352459,0.750237,0.689266,1.29362,0.375564
276,395,48,214,228,0.484163,0.891648,0.648604,0.891648,0.351396,0.750951,0.688136,1.295744,0.376673
277,395,48,213,229,0.4819,0.891648,0.649671,0.891648,0.350329,0.751665,0.687006,1.297876,0.376981
278,395,48,212,230,0.479638,0.891648,0.650741,0.891648,0.349259,0.752381,0.685876,1.300014,0.377407
279,395,48,211,231,0.477376,0.891648,0.651815,0.891648,0.348185,0.753098,0.684746,1.302159,0.377582
280,394,49,211,231,0.477376,0.889391,0.65124,0.889391,0.34876,0.751908,0.683616,1.301009,0.378035
281,393,50,211,231,0.477376,0.887133,0.650662,0.887133,0.349338,0.750716,0.682486,1.299856,0.378662
282,393,50,210,232,0.475113,0.887133,0.651741,0.887133,0.348259,0.751434,0.681356,1.302011,0.378793
283,393,50,209,233,0.472851,0.887133,0.652824,0.887133,0.347176,0.752153,0.680226,1.304174,0.378919
284,393,50,208,234,0.470588,0.887133,0.65391,0.887133,0.34609,0.752874,0.679096,1.306344,0.380367
285,393,50,207,235,0.468326,0.887133,0.655,0.887133,0.345,0.753595,0.677966,1.308521,0.380898
286,392,51,207,235,0.468326,0.884876,0.654424,0.884876,0.345576,0.752399,0.676836,1.307371,0.381551
287,392,51,206,236,0.466063,0.884876,0.655518,0.884876,0.344482,0.753122,0.675706,1.309557,0.381628
288,391,52,206,236,0.466063,0.882619,0.654941,0.882619,0.345059,0.751923,0.674576,1.308404,0.381786
289,391,52,205,237,0.463801,0.882619,0.65604,0.882619,0.34396,0.752647,0.673446,1.3106,0.383885
290,390,53,205,237,0.463801,0.880361,0.655462,0.880361,0.344538,0.751445,0.672316,1.309445,0.383915
291,390,53,204,238,0.461538,0.880361,0.656566,0.880361,0.343434,0.75217,0.671186,1.311649,0.384559
292,390,53,203,239,0.459276,0.880361,0.657673,0.880361,0.342327,0.752896,0.670056,1.313861,0.384798
293,390,53,202,240,0.457014,0.880361,0.658784,0.880361,0.341216,0.753623,0.668927,1.31608,0.385007
294,390,53,201,241,0.454751,0.880361,0.659898,0.880361,0.340102,0.754352,0.667797,1.318307,0.387599
295,389,54,201,241,0.454751,0.878104,0.659322,0.878104,0.340678,0.753146,0.666667,1.317156,0.387701
296,388,55,201,241,0.454751,0.875847,0.658744,0.875847,0.341256,0.751938,0.665537,1.316,0.38784
297,388,55,200,242,0.452489,0.875847,0.659864,0.875847,0.340136,0.752667,0.664407,1.318238,0.389304
298,387,56,200,242,0.452489,0.873589,0.659284,0.873589,0.340716,0.751456,0.663277,1.317081,0.389646
299,387,56,199,243,0.450226,0.873589,0.66041,0.873589,0.33959,0.752187,0.662147,1.319328,0.389966
300,387,56,198,244,0.447964,0.873589,0.661538,0.873589,0.338462,0.752918,0.661017,1.321584,0.391656
301,387,56,197,245,0.445701,0.873589,0.662671,0.873589,0.337329,0.753651,0.659887,1.323847,0.392347
302,387,56,196,246,0.443439,0.873589,0.663808,0.873589,0.336192,0.754386,0.658757,1.326117,0.39237
303,387,56,195,247,0.441176,0.873589,0.664948,0.873589,0.335052,0.755122,0.657627,1.328396,0.392648
304,386,57,195,247,0.441176,0.871332,0.664372,0.871332,0.335628,0.753906,0.656497,1.327244,0.393134
305,385,58,195,247,0.441176,0.869074,0.663793,0.869074,0.336207,0.752688,0.655367,1.326088,0.393217
306,384,59,195,247,0.441176,0.866817,0.663212,0.866817,0.336788,0.751468,0.654237,1.324928,0.395612
307,383,60,195,247,0.441176,0.86456,0.66263,0.86456,0.33737,0.750245,0.653107,1.323764,0.397374
308,382,61,195,247,0.441176,0.862302,0.662045,0.862302,0.337955,0.74902,0.651977,1.322596,0.398874
309,381,62,195,247,0.441176,0.860045,0.661458,0.860045,0.338542,0.747792,0.650847,1.321424,0.398895
310,381,62,194,248,0.438914,0.860045,0.662609,0.860045,0.337391,0.748527,0.649718,1.323722,0.399477
311,381,62,193,249,0.436652,0.860045,0.663763,0.860045,0.336237,0.749263,0.648588,1.326028,0.399823
312,380,63,193,249,0.436652,0.857788,0.663176,0.857788,0.336824,0.748031,0.647458,1.324856,0.400632
313,379,64,193,249,0.436652,0.85553,0.662587,0.85553,0.337413,0.746798,0.646328,1.323679,0.401136
314,379,64,192,250,0.434389,0.85553,0.663748,0.85553,0.336252,0.747535,0.645198,1.325997,0.401606
315,379,64,191,251,0.432127,0.85553,0.664912,0.85553,0.335088,0.748272,0.644068,1.328324,0.401742
316,379,64,190,252,0.429864,0.85553,0.666081,0.85553,0.333919,0.749012,0.642938,1.330658,0.402186
317,379,64,189,253,0.427602,0.85553,0.667254,0.85553,0.332746,0.749753,0.641808,1.333001,0.403203
318,379,64,188,254,0.425339,0.85553,0.66843,0.85553,0.33157,0.750495,0.640678,1.335352,0.404097
319,379,64,187,255,0.423077,0.85553,0.669611,0.85553,0.330389,0.751239,0.639548,1.337711,0.40481
320,379,64,186,256,0.420814,0.85553,0.670796,0.85553,0.329204,0.751984,0.638418,1.340079,0.405615
321,378,65,186,256,0.420814,0.853273,0.670213,0.853273,0.329787,0.750745,0.637288,1.338913,0.406858
322,378,65,185,257,0.418552,0.853273,0.671403,0.853273,0.328597,0.751491,0.636158,1.341291,0.407236
323,378,65,184,258,0.41629,0.853273,0.672598,0.853273,0.327402,0.752239,0.635028,1.343677,0.407828
324,378,65,183,259,0.414027,0.853273,0.673797,0.853273,0.326203,0.752988,0.633898,1.346073,0.408364
325,377,66,183,259,0.414027,0.851016,0.673214,0.851016,0.326786,0.751745,0.632768,1.344909,0.409534
326,377,66,182,260,0.411765,0.851016,0.674419,0.851016,0.325581,0.752495,0.631638,1.347315,0.409566
327,376,67,182,260,0.411765,0.848758,0.673835,0.848758,0.326165,0.751249,0.630508,1.346149,0.409699
328,375,68,182,260,0.411765,0.846501,0.67325,0.846501,0.32675,0.75,0.629379,1.344979,0.409782
329,374,69,182,260,0.411765,0.844244,0.672662,0.844244,0.327338,0.748749,0.628249,1.343805,0.409885
330,374,69,181,261,0.409502,0.844244,0.673874,0.844244,0.326126,0.749499,0.627119,1.346227,0.410939
331,374,69,180,262,0.40724,0.844244,0.67509,0.844244,0.32491,0.750251,0.625989,1.348657,0.41115
332,374,69,179,263,0.404977,0.844244,0.676311,0.844244,0.323689,0.751004,0.624859,1.351095,0.411165
333,374,69,178,264,0.402715,0.844244,0.677536,0.844244,0.322464,0.751759,0.623729,1.353543,0.411267
334,373,70,178,264,0.402715,0.841986,0.676951,0.841986,0.323049,0.750503,0.622599,1.352374,0.411492
335,372,71,178,264,0.402715,0.839729,0.676364,0.839729,0.323636,0.749245,0.621469,1.3512,0.412682
336,371,72,178,264,0.402715,0.837472,0.675774,0.837472,0.324226,0.747984,0.620339,1.350023,0.414264
337,370,73,178,264,0.402715,0.835214,0.675182,0.835214,0.324818,0.74672,0.619209,1.348841,0.414885
338,370,73,177,265,0.400452,0.835214,0.676417,0.835214,0.323583,0.747475,0.618079,1.351307,0.416126
339,369,74,177,265,0.400452,0.832957,0.675824,0.832957,0.324176,0.746208,0.616949,1.350123,0.417539
340,369,74,176,266,0.39819,0.832957,0.677064,0.832957,0.322936,0.746964,0.615819,1.3526,0.417767
341,369,74,175,267,0.395928,0.832957,0.678309,0.832957,0.321691,0.74772,0.614689,1.355086,0.418386
342,368,75,175,267,0.395928,0.8307,0.677716,0.8307,0.322284,0.74645,0.613559,1.353903,0.419004
343,367,76,175,267,0.395928,0.828442,0.677122,0.828442,0.322878,0.745178,0.612429,1.352715,0.419744
344,367,76,174,268,0.393665,0.828442,0.678373,0.828442,0.321627,0.745935,0.611299,1.355215,0.420065
345,367,76,173,269,0.391403,0.828442,0.67963,0.828442,0.32037,0.746694,0.610169,1.357725,0.420272
346,367,76,172,270,0.38914,0.828442,0.680891,0.828442,0.319109,0.747454,0.60904,1.360244,0.420467
347,366,77,172,270,0.38914,0.826185,0.680297,0.826185,0.319703,0.746177,0.60791,1.359059,0.42097
348,366,77,171,271,0.386878,0.826185,0.681564,0.826185,0.318436,0.746939,0.60678,1.36159,0.421003
349,366,77,170,272,0.384615,0.826185,0.682836,0.826185,0.317164,0.747702,0.60565,1.36413,0.421049
350,365,78,170,272,0.384615,0.823928,0.682243,0.823928,0.317757,0.746421,0.60452,1.362946,0.421288
351,365,78,169,273,0.382353,0.823928,0.683521,0.823928,0.316479,0.747185,0.60339,1.365498,0.421737
352,365,78,168,274,0.38009,0.823928,0.684803,0.823928,0.315197,0.747951,0.60226,1.36806,0.422389
353,365,78,167,275,0.377828,0.823928,0.68609,0.823928,0.31391,0.748718,0.60113,1.370632,0.422629
354,364,79,167,275,0.377828,0.82167,0.685499,0.82167,0.314501,0.747433,0.6,1.369451,0.423149
355,363,80,167,275,0.377828,0.819413,0.684906,0.819413,0.315094,0.746146,0.59887,1.368265,0.423361
356,362,81,167,275,0.377828,0.817156,0.68431,0.817156,0.31569,0.744856,0.59774,1.367075,0.423775
357,361,82,167,275,0.377828,0.814898,0.683712,0.814898,0.316288,0.743563,0.59661,1.365881,0.424351
358,361,82,166,276,0.375566,0.814898,0.685009,0.814898,0.314991,0.74433,0.59548,1.368473,0.425649
359,360,83,166,276,0.375566,0.812641,0.684411,0.812641,0.315589,0.743034,0.59435,1.367276,0.426009
360,360,83,165,277,0.373303,0.812641,0.685714,0.812641,0.314286,0.743802,0.59322,1.369881,0.426477
361,359,84,165,277,0.373303,0.810384,0.685115,0.810384,0.314885,0.742503,0.59209,1.368682,0.42655
362,359,84,164,278,0.371041,0.810384,0.686424,0.810384,0.313576,0.743271,0.59096,1.371299,0.426713
363,359,84,163,279,0.368778,0.810384,0.687739,0.810384,0.312261,0.744041,0.589831,1.373926,0.428283
364,359,84,162,280,0.366516,0.810384,0.68906,0.810384,0.31094,0.744813,0.588701,1.376564,0.428995
365,359,84,161,281,0.364253,0.810384,0.690385,0.810384,0.309615,0.745587,0.587571,1.379211,0.429667
366,359,84,160,282,0.361991,0.810384,0.691715,0.810384,0.308285,0.746362,0.586441,1.381868,0.429874
367,359,84,159,283,0.359729,0.810384,0.69305,0.810384,0.30695,0.747138,0.585311,1.384536,0.430209
368,358,85,159,283,0.359729,0.808126,0.692456,0.808126,0.307544,0.745833,0.584181,1.38335,0.432023
369,358,85,158,284,0.357466,0.808126,0.693798,0.808126,0.306202,0.746611,0.583051,1.386031,0.432245
370,358,85,157,285,0.355204,0.808126,0.695146,0.808126,0.304854,0.74739,0.581921,1.388722,0.432536
371,357,86,157,285,0.355204,0.805869,0.694553,0.805869,0.305447,0.746082,0.580791,1.387537,0.432659
372,357,86,156,286,0.352941,0.805869,0.695906,0.805869,0.304094,0.746862,0.579661,1.390242,0.433214
373,357,86,155,287,0.350679,0.805869,0.697266,0.805869,0.302734,0.747644,0.578531,1.392957,0.434154
374,356,87,155,287,0.350679,0.803612,0.696673,0.803612,0.303327,0.746331,0.577401,1.391774,0.436607
375,356,87,154,288,0.348416,0.803612,0.698039,0.803612,0.301961,0.747114,0.576271,1.394503,0.436719
376,355,88,154,288,0.348416,0.801354,0.697446,0.801354,0.302554,0.745798,0.575141,1.393318,0.437246
377,355,88,153,289,0.346154,0.801354,0.698819,0.801354,0.301181,0.746583,0.574011,1.39606,0.437609
378,355,88,152,290,0.343891,0.801354,0.700197,0.801354,0.299803,0.747368,0.572881,1.398814,0.437771
379,355,88,151,291,0.341629,0.801354,0.701581,0.801354,0.298419,0.748156,0.571751,1.401578,0.440791
380,355,88,150,292,0.339367,0.801354,0.70297,0.801354,0.29703,0.748945,0.570621,1.404354,0.44126
381,355,88,149,293,0.337104,0.801354,0.704365,0.801354,0.295635,0.749736,0.569492,1.40714,0.441328
382,355,88,148,294,0.334842,0.801354,0.705765,0.801354,0.294235,0.750529,0.568362,1.409938,0.441772
383,354,89,148,294,0.334842,0.799097,0.705179,0.799097,0.294821,0.749206,0.567232,1.408767,0.443335
384,354,89,147,295,0.332579,0.799097,0.706587,0.799097,0.293413,0.75,0.566102,1.411579,0.443937
385,353,90,147,295,0.332579,0.79684,0.706,0.79684,0.294,0.748674,0.564972,1.410406,0.444259
386,352,91,147,295,0.332579,0.794582,0.705411,0.794582,0.294589,0.747346,0.563842,1.409229,0.44572
387,352,91,146,296,0.330317,0.794582,0.706827,0.794582,0.293173,0.74814,0.562712,1.412059,0.445727
388,352,91,145,297,0.328054,0.794582,0.708249,0.794582,0.291751,0.748936,0.561582,1.4149,0.445734
389,352,91,144,298,0.325792,0.794582,0.709677,0.794582,0.290323,0.749734,0.560452,1.417753,0.446707
390,351,92,144,298,0.325792,0.792325,0.709091,0.792325,0.290909,0.748401,0.559322,1.416581,0.446795
391,351,92,143,299,0.323529,0.792325,0.710526,0.792325,0.289474,0.7492,0.558192,1.419449,0.446848
392,351,92,142,300,0.321267,0.792325,0.711968,0.792325,0.288032,0.75,0.557062,1.422328,0.447262
393,351,92,141,301,0.319005,0.792325,0.713415,0.792325,0.286585,0.750802,0.555932,1.425219,0.447873
394,351,92,140,302,0.316742,0.792325,0.714868,0.792325,0.285132,0.751606,0.554802,1.428122,0.447965
395,350,93,140,302,0.316742,0.790068,0.714286,0.790068,0.285714,0.750268,0.553672,1.426959,0.448275
396,349,94,140,302,0.316742,0.78781,0.713701,0.78781,0.286299,0.748927,0.552542,1.425792,0.448338
397,349,94,139,303,0.31448,0.78781,0.715164,0.78781,0.284836,0.749731,0.551412,1.428714,0.448483
398,349,94,138,304,0.312217,0.78781,0.716632,0.78781,0.283368,0.750538,0.550282,1.431647,0.448882
399,349,94,137,305,0.309955,0.78781,0.718107,0.78781,0.281893,0.751346,0.549153,1.434593,0.448988
400,349,94,136,306,0.307692,0.78781,0.719588,0.78781,0.280412,0.752155,0.548023,1.437551,0.449898
401,348,95,136,306,0.307692,0.785553,0.719008,0.785553,0.280992,0.750809,0.546893,1.436393,0.449971
402,348,95,135,307,0.30543,0.785553,0.720497,0.785553,0.279503,0.75162,0.545763,1.439367,0.450677
403,348,95,134,308,0.303167,0.785553,0.721992,0.785553,0.278008,0.752432,0.544633,1.442354,0.450967
404,347,96,134,308,0.303167,0.783296,0.721414,0.783296,0.278586,0.751082,0.543503,1.441199,0.451148
405,347,96,133,309,0.300905,0.783296,0.722917,0.783296,0.277083,0.751896,0.542373,1.444201,0.45156
406,346,97,133,309,0.300905,0.781038,0.722338,0.781038,0.277662,0.750542,0.541243,1.443046,0.451653
407,345,98,133,309,0.300905,0.778781,0.721757,0.778781,0.278243,0.749186,0.540113,1.441885,0.453495
408,344,99,133,309,0.300905,0.776524,0.721174,0.776524,0.278826,0.747826,0.538983,1.44072,0.453771
409,344,99,132,310,0.298643,0.776524,0.722689,0.776524,0.277311,0.74864,0.537853,1.443747,0.453855
410,343,100,132,310,0.298643,0.774266,0.722105,0.774266,0.277895,0.747277,0.536723,1.44258,0.454795
411,343,100,131,311,0.29638,0.774266,0.723629,0.774266,0.276371,0.748092,0.535593,1.445624,0.45586
412,343,100,130,312,0.294118,0.774266,0.725159,0.774266,0.274841,0.748908,0.534463,1.44868,0.456086
413,343,100,129,313,0.291855,0.774266,0.726695,0.774266,0.273305,0.749727,0.533333,1.451749,0.45656
414,342,101,129,313,0.291855,0.772009,0.726115,0.772009,0.273885,0.748359,0.532203,1.45059,0.457429
415,341,102,129,313,0.291855,0.769752,0.725532,0.769752,0.274468,0.746988,0.531073,1.449426,0.457806
416,341,102,128,314,0.289593,0.769752,0.727079,0.769752,0.272921,0.747807,0.529944,1.452517,0.457871
417,341,102,127,315,0.28733,0.769752,0.728632,0.769752,0.271368,0.748628,0.528814,1.45562,0.458712
418,340,103,127,315,0.28733,0.767494,0.728051,0.767494,0.271949,0.747253,0.527684,1.454459,0.459476
419,339,104,127,315,0.28733,0.765237,0.727468,0.765237,0.272532,0.745875,0.526554,1.453293,0.459705
420,338,105,127,315,0.28733,0.76298,0.726882,0.76298,0.273118,0.744493,0.525424,1.452123,0.460206
421,337,106,127,315,0.28733,0.760722,0.726293,0.760722,0.273707,0.743109,0.524294,1.450947,0.462291
422,337,106,126,316,0.285068,0.760722,0.727862,0.760722,0.272138,0.743929,0.523164,1.454081,0.462648
423,337,106,125,317,0.282805,0.760722,0.729437,0.760722,0.270563,0.744751,0.522034,1.457228,0.462675
424,336,107,125,317,0.282805,0.758465,0.72885,0.758465,0.27115,0.743363,0.520904,1.456055,0.462841
425,335,108,125,317,0.282805,0.756208,0.728261,0.756208,0.271739,0.741971,0.519774,1.454878,0.466225
426,335,108,124,318,0.280543,0.756208,0.729847,0.756208,0.270153,0.742794,0.518644,1.458047,0.466305
427,335,108,123,319,0.278281,0.756208,0.731441,0.756208,0.268559,0.743618,0.517514,1.461231,0.467851
428,334,109,123,319,0.278281,0.75395,0.730853,0.75395,0.269147,0.742222,0.516384,1.460057,0.467908
429,334,109,122,320,0.276018,0.75395,0.732456,0.75395,0.267544,0.743048,0.515254,1.463259,0.46805
430,334,109,121,321,0.273756,0.75395,0.734066,0.75395,0.265934,0.743875,0.514124,1.466475,0.468929
431,333,110,121,321,0.273756,0.751693,0.73348,0.751693,0.26652,0.742475,0.512994,1.465305,0.469999
432,333,110,120,322,0.271493,0.751693,0.735099,0.751693,0.264901,0.743304,0.511864,1.468539,0.470205
433,332,111,120,322,0.271493,0.749436,0.734513,0.749436,0.265487,0.741899,0.510734,1.467369,0.470967
434,331,112,120,322,0.271493,0.747178,0.733925,0.747178,0.266075,0.740492,0.509605,1.466193,0.471278
435,330,113,120,322,0.271493,0.744921,0.733333,0.744921,0.266667,0.739082,0.508475,1.465011,0.472302
436,329,114,120,322,0.271493,0.742664,0.732739,0.742664,0.267261,0.737668,0.507345,1.463825,0.47235
437,329,114,119,323,0.269231,0.742664,0.734375,0.742664,0.265625,0.738496,0.506215,1.467092,0.473218
438,328,115,119,323,0.269231,0.740406,0.733781,0.740406,0.266219,0.737079,0.505085,1.465905,0.473457
439,328,115,118,324,0.266968,0.740406,0.735426,0.740406,0.264574,0.737908,0.503955,1.469192,0.474051
440,328,115,117,325,0.264706,0.740406,0.737079,0.740406,0.262921,0.738739,0.502825,1.472493,0.474151
441,328,115,116,326,0.262443,0.740406,0.738739,0.740406,0.261261,0.739572,0.501695,1.47581,0.474453
442,328,115,115,327,0.260181,0.740406,0.740406,0.740406,0.259594,0.740406,0.500565,1.479141,0.475377
443,327,116,115,327,0.260181,0.738149,0.739819,0.738149,0.260181,0.738983,0.499435,1.477968,0.475474
444,326,117,115,327,0.260181,0.735892,0.739229,0.735892,0.260771,0.737557,0.498305,1.476789,0.475663
445,326,117,114,328,0.257919,0.735892,0.740909,0.735892,0.259091,0.738392,0.497175,1.480146,0.476123
446,326,117,113,329,0.255656,0.735892,0.742597,0.735892,0.257403,0.739229,0.496045,1.483517,0.476553
447,325,118,113,329,0.255656,0.733634,0.742009,0.733634,0.257991,0.737798,0.494915,1.482343,0.479052
448,324,119,113,329,0.255656,0.731377,0.741419,0.731377,0.258581,0.736364,0.493785,1.481164,0.479447
449,324,119,112,330,0.253394,0.731377,0.743119,0.731377,0.256881,0.737201,0.492655,1.484561,0.479806
450,324,119,111,331,0.251131,0.731377,0.744828,0.731377,0.255172,0.738041,0.491525,1.487974,0.480523
451,323,120,111,331,0.251131,0.72912,0.74424,0.72912,0.25576,0.736602,0.490395,1.486799,0.480815
452,322,121,111,331,0.251131,0.726862,0.743649,0.726862,0.256351,0.73516,0.489266,1.485619,0.482033
453,322,121,110,332,0.248869,0.726862,0.74537,0.726862,0.25463,0.736,0.488136,1.489058,0.482126
454,322,121,109,333,0.246606,0.726862,0.7471,0.726862,0.2529,0.736842,0.487006,1.492513,0.482221
455,321,122,109,333,0.246606,0.724605,0.746512,0.724605,0.253488,0.735395,0.485876,1.491338,0.484015
456,320,123,109,333,0.246606,0.722348,0.745921,0.722348,0.254079,0.733945,0.484746,1.490158,0.484147
457,319,124,109,333,0.246606,0.72009,0.745327,0.72009,0.254673,0.732491,0.483616,1.488972,0.484216
458,319,124,108,334,0.244344,0.72009,0.747073,0.72009,0.252927,0.733333,0.482486,1.492459,0.485709
459,319,124,107,335,0.242081,0.72009,0.748826,0.72009,0.251174,0.734177,0.481356,1.495962,0.485817
460,318,125,107,335,0.242081,0.717833,0.748235,0.717833,0.251765,0.732719,0.480226,1.494782,0.485936
461,318,125,106,336,0.239819,0.717833,0.75,0.717833,0.25,0.733564,0.479096,1.498307,0.486304
462,317,126,106,336,0.239819,0.715576,0.749409,0.715576,0.250591,0.732102,0.477966,1.497126,0.48718
463,316,127,106,336,0.239819,0.713318,0.748815,0.713318,0.251185,0.730636,0.476836,1.49594,0.487518
464,315,128,106,336,0.239819,0.711061,0.748219,0.711061,0.251781,0.729167,0.475706,1.494748,0.488166
465,315,128,105,337,0.237557,0.711061,0.75,0.711061,0.25,0.730012,0.474576,1.498307,0.489093
466,314,129,105,337,0.237557,0.708804,0.749403,0.708804,0.250597,0.728538,0.473446,1.497115,0.489164
467,313,130,105,337,0.237557,0.706546,0.748804,0.706546,0.251196,0.727062,0.472316,1.495917,0.489247
468,313,130,104,338,0.235294,0.706546,0.7506,0.706546,0.2494,0.727907,0.471186,1.499505,0.489557
469,313,130,103,339,0.233032,0.706546,0.752404,0.706546,0.247596,0.728754,0.470056,1.503109,0.489844
470,312,131,103,339,0.233032,0.704289,0.751807,0.704289,0.248193,0.727273,0.468927,1.501917,0.489965
471,311,132,103,339,0.233032,0.702032,0.751208,0.702032,0.248792,0.725788,0.467797,1.50072,0.491092
472,310,133,103,339,0.233032,0.699774,0.750605,0.699774,0.249395,0.724299,0.466667,1.499516,0.491793
473,310,133,102,340,0.230769,0.699774,0.752427,0.699774,0.247573,0.725146,0.465537,1.503156,0.492196
474,309,134,102,340,0.230769,0.697517,0.751825,0.697517,0.248175,0.723653,0.464407,1.501953,0.493753
475,309,134,101,341,0.228507,0.697517,0.753659,0.697517,0.246341,0.724502,0.463277,1.505616,0.49552
476,309,134,100,342,0.226244,0.697517,0.755501,0.697517,0.244499,0.725352,0.462147,1.509297,0.496354
477,309,134,99,343,0.223982,0.697517,0.757353,0.697517,0.242647,0.726204,0.461017,1.512996,0.496995
478,309,134,98,344,0.221719,0.697517,0.759214,0.697517,0.240786,0.727059,0.459887,1.516714,0.497624
479,308,135,98,344,0.221719,0.69526,0.758621,0.69526,0.241379,0.725559,0.458757,1.515529,0.497856
480,307,136,98,344,0.221719,0.693002,0.758025,0.693002,0.241975,0.724057,0.457627,1.514338,0.498758
481,306,137,98,344,0.221719,0.690745,0.757426,0.690745,0.242574,0.72255,0.456497,1.513142,0.499108
482,305,138,98,344,0.221719,0.688488,0.756824,0.688488,0.243176,0.72104,0.455367,1.511939,0.499527
483,304,139,98,344,0.221719,0.68623,0.756219,0.68623,0.243781,0.719527,0.454237,1.510731,0.501035
484,304,139,97,345,0.219457,0.68623,0.758105,0.68623,0.241895,0.720379,0.453107,1.514498,0.501361
485,304,139,96,346,0.217195,0.68623,0.76,0.68623,0.24,0.721234,0.451977,1.518284,0.501726
486,304,139,95,347,0.214932,0.68623,0.761905,0.68623,0.238095,0.72209,0.450847,1.52209,0.502237
487,304,139,94,348,0.21267,0.68623,0.763819,0.68623,0.236181,0.722949,0.449718,1.525914,0.502891
488,304,139,93,349,0.210407,0.68623,0.765743,0.68623,0.234257,0.72381,0.448588,1.529758,0.503042
489,303,140,93,349,0.210407,0.683973,0.765152,0.683973,0.234848,0.722288,0.447458,1.528576,0.503059
490,302,141,93,349,0.210407,0.681716,0.764557,0.681716,0.235443,0.720764,0.446328,1.527388,0.503796
491,301,142,93,349,0.210407,0.679458,0.763959,0.679458,0.236041,0.719235,0.445198,1.526194,0.503991
492,300,143,93,349,0.210407,0.677201,0.763359,0.677201,0.236641,0.717703,0.444068,1.524994,0.504562
493,299,144,93,349,0.210407,0.674944,0.762755,0.674944,0.237245,0.716168,0.442938,1.523788,0.504587
494,298,145,93,349,0.210407,0.672686,0.762148,0.672686,0.237852,0.714628,0.441808,1.522576,0.505242
495,298,145,92,350,0.208145,0.672686,0.764103,0.672686,0.235897,0.715486,0.440678,1.52648,0.505932
496,297,146,92,350,0.208145,0.670429,0.763496,0.670429,0.236504,0.713942,0.439548,1.525269,0.506568
497,296,147,92,350,0.208145,0.668172,0.762887,0.668172,0.237113,0.712395,0.438418,1.524051,0.50674
498,296,147,91,351,0.205882,0.668172,0.764858,0.668172,0.235142,0.713253,0.437288,1.527989,0.507579
499,296,147,90,352,0.20362,0.668172,0.766839,0.668172,0.233161,0.714113,0.436158,1.531948,0.507691
500,296,147,89,353,0.201357,0.668172,0.768831,0.668172,0.231169,0.714976,0.435028,1.535927,0.507804
501,295,148,89,353,0.201357,0.665914,0.768229,0.665914,0.231771,0.713422,0.433898,1.534724,0.507973
502,295,148,88,354,0.199095,0.665914,0.770235,0.665914,0.229765,0.714286,0.432768,1.538731,0.508301
503,295,148,87,355,0.196833,0.665914,0.772251,0.665914,0.227749,0.715152,0.431638,1.542759,0.509498
504,295,148,86,356,0.19457,0.665914,0.774278,0.665914,0.225722,0.716019,0.430508,1.546809,0.509775
505,295,148,85,357,0.192308,0.665914,0.776316,0.665914,0.223684,0.716889,0.429379,1.550879,0.510825
506,294,149,85,357,0.192308,0.663657,0.775726,0.663657,0.224274,0.715328,0.428249,1.5497,0.510936
507,293,150,85,357,0.192308,0.6614,0.775132,0.6614,0.224868,0.713764,0.427119,1.548515,0.51167
508,292,151,85,357,0.192308,0.659142,0.774536,0.659142,0.225464,0.712195,0.425989,1.547323,0.513529
509,291,152,85,357,0.192308,0.656885,0.773936,0.656885,0.226064,0.710623,0.424859,1.546125,0.514219
510,291,152,84,358,0.190045,0.656885,0.776,0.656885,0.224,0.711491,0.423729,1.550248,0.514431
511,290,153,84,358,0.190045,0.654628,0.775401,0.654628,0.224599,0.709914,0.422599,1.549052,0.514764
512,290,153,83,359,0.187783,0.654628,0.77748,0.654628,0.22252,0.710784,0.421469,1.553205,0.516726
513,290,153,82,360,0.18552,0.654628,0.77957,0.654628,0.22043,0.711656,0.420339,1.55738,0.516759
514,290,153,81,361,0.183258,0.654628,0.781671,0.654628,0.218329,0.712531,0.419209,1.561578,0.517261
515,290,153,80,362,0.180995,0.654628,0.783784,0.654628,0.216216,0.713407,0.418079,1.565798,0.517562
516,289,154,80,362,0.180995,0.65237,0.783198,0.65237,0.216802,0.711823,0.416949,1.564628,0.518401
517,288,155,80,362,0.180995,0.650113,0.782609,0.650113,0.217391,0.710234,0.415819,1.563451,0.520819
518,287,156,80,362,0.180995,0.647856,0.782016,0.647856,0.217984,0.708642,0.414689,1.562267,0.521038
519,286,157,80,362,0.180995,0.645598,0.781421,0.645598,0.218579,0.707046,0.413559,1.561078,0.521729
520,285,158,80,362,0.180995,0.643341,0.780822,0.643341,0.219178,0.705446,0.412429,1.559881,0.522084
521,284,159,80,362,0.180995,0.641084,0.78022,0.641084,0.21978,0.703841,0.411299,1.558678,0.523183
522,284,159,79,363,0.178733,0.641084,0.782369,0.641084,0.217631,0.704715,0.410169,1.562972,0.524589
523,284,159,78,364,0.176471,0.641084,0.78453,0.641084,0.21547,0.70559,0.40904,1.56729,0.524633
524,284,159,77,365,0.174208,0.641084,0.786704,0.641084,0.213296,0.706468,0.40791,1.571631,0.525273
525,283,160,77,365,0.174208,0.638826,0.786111,0.638826,0.213889,0.704857,0.40678,1.570448,0.525605
526,282,161,77,365,0.174208,0.636569,0.785515,0.636569,0.214485,0.703242,0.40565,1.569257,0.526177
527,281,162,77,365,0.174208,0.634312,0.784916,0.634312,0.215084,0.701623,0.40452,1.568061,0.526405
528,281,162,76,366,0.171946,0.634312,0.787115,0.634312,0.212885,0.7025,0.40339,1.572453,0.52652
529,281,162,75,367,0.169683,0.634312,0.789326,0.634312,0.210674,0.703379,0.40226,1.57687,0.528617
530,280,163,75,367,0.169683,0.632054,0.788732,0.632054,0.211268,0.701754,0.40113,1.575684,0.529259
531,279,164,75,367,0.169683,0.629797,0.788136,0.629797,0.211864,0.700125,0.4,1.574492,0.531738
532,278,165,75,367,0.169683,0.62754,0.787535,0.62754,0.212465,0.698492,0.39887,1.573293,0.532063
533,277,166,75,367,0.169683,0.625282,0.786932,0.625282,0.213068,0.696855,0.39774,1.572087,0.533309
534,277,166,74,368,0.167421,0.625282,0.789174,0.625282,0.210826,0.697733,0.39661,1.576566,0.536505
535,276,167,74,368,0.167421,0.623025,0.788571,0.623025,0.211429,0.696091,0.39548,1.575363,0.536926
536,276,167,73,369,0.165158,0.623025,0.790831,0.623025,0.209169,0.69697,0.39435,1.579877,0.537893
537,275,168,73,369,0.165158,0.620767,0.79023,0.620767,0.20977,0.695322,0.39322,1.578676,0.538679
538,274,169,73,369,0.165158,0.61851,0.789625,0.61851,0.210375,0.693671,0.39209,1.577468,0.539545
539,274,169,72,370,0.162896,0.61851,0.791908,0.61851,0.208092,0.69455,0.39096,1.582027,0.539949
540,274,169,71,371,0.160633,0.61851,0.794203,0.61851,0.205797,0.695431,0.389831,1.586613,0.540505
541,274,169,70,372,0.158371,0.61851,0.796512,0.61851,0.203488,0.696315,0.388701,1.591225,0.5406
542,274,169,69,373,0.156109,0.61851,0.798834,0.61851,0.201166,0.697201,0.387571,1.595864,0.541171
543,273,170,69,373,0.156109,0.616253,0.798246,0.616253,0.201754,0.695541,0.386441,1.594689,0.541793
544,273,170,68,374,0.153846,0.616253,0.800587,0.616253,0.199413,0.696429,0.385311,1.599366,0.541819
545,273,170,67,375,0.151584,0.616253,0.802941,0.616253,0.197059,0.697318,0.384181,1.60407,0.54296
546,272,171,67,375,0.151584,0.613995,0.80236,0.613995,0.19764,0.695652,0.383051,1.602909,0.543005
547,272,171,66,376,0.149321,0.613995,0.804734,0.613995,0.195266,0.696543,0.381921,1.607651,0.543832
548,271,172,66,376,0.149321,0.611738,0.804154,0.611738,0.195846,0.694872,0.380791,1.606493,0.543981
549,271,172,65,377,0.147059,0.611738,0.806548,0.611738,0.193452,0.695764,0.379661,1.611275,0.544536
550,271,172,64,378,0.144796,0.611738,0.808955,0.611738,0.191045,0.696658,0.378531,1.616084,0.544705
551,271,172,63,379,0.142534,0.611738,0.811377,0.611738,0.188623,0.697555,0.377401,1.620923,0.546137
552,270,173,63,379,0.142534,0.609481,0.810811,0.609481,0.189189,0.695876,0.376271,1.619791,0.547138
553,270,173,62,380,0.140271,0.609481,0.813253,0.609481,0.186747,0.696774,0.375141,1.62467,0.547314
554,270,173,61,381,0.138009,0.609481,0.81571,0.609481,0.18429,0.697674,0.374011,1.629579,0.548104
555,270,173,60,382,0.135747,0.609481,0.818182,0.609481,0.181818,0.698577,0.372881,1.634517,0.548318
556,270,173,59,383,0.133484,0.609481,0.820669,0.609481,0.179331,0.699482,0.371751,1.639485,0.548715
557,270,173,58,384,0.131222,0.609481,0.823171,0.609481,0.176829,0.700389,0.370621,1.644483,0.548864
558,270,173,57,385,0.128959,0.609481,0.825688,0.609481,0.174312,0.701299,0.369492,1.649512,0.548951
559,270,173,56,386,0.126697,0.609481,0.828221,0.609481,0.171779,0.702211,0.368362,1.654572,0.551268
560,270,173,55,387,0.124434,0.609481,0.830769,0.609481,0.169231,0.703125,0.367232,1.659663,0.551441
561,270,173,54,388,0.122172,0.609481,0.833333,0.609481,0.166667,0.704042,0.366102,1.664786,0.551999
562,270,173,53,389,0.11991,0.609481,0.835913,0.609481,0.164087,0.704961,0.364972,1.66994,0.552488
563,270,173,52,390,0.117647,0.609481,0.838509,0.609481,0.161491,0.705882,0.363842,1.675126,0.552553
564,269,174,52,390,0.117647,0.607223,0.838006,0.607223,0.161994,0.704188,0.362712,1.674121,0.55387
565,268,175,52,390,0.117647,0.604966,0.8375,0.604966,0.1625,0.70249,0.361582,1.673109,0.554038
566,267,176,52,390,0.117647,0.602709,0.836991,0.602709,0.163009,0.700787,0.360452,1.672092,0.554091
567,267,176,51,391,0.115385,0.602709,0.839623,0.602709,0.160377,0.701708,0.359322,1.67735,0.555075
568,266,177,51,391,0.115385,0.600451,0.839117,0.600451,0.160883,0.7,0.358192,1.676339,0.555263
569,265,178,51,391,0.115385,0.598194,0.838608,0.598194,0.161392,0.698287,0.357062,1.675322,0.5563
570,265,178,50,392,0.113122,0.598194,0.84127,0.598194,0.15873,0.699208,0.355932,1.680641,0.556538
571,264,179,50,392,0.113122,0.595937,0.840764,0.595937,0.159236,0.69749,0.354802,1.679631,0.55744
572,263,180,50,392,0.113122,0.593679,0.840256,0.593679,0.159744,0.695767,0.353672,1.678614,0.558817
573,262,181,50,392,0.113122,0.591422,0.839744,0.591422,0.160256,0.69404,0.352542,1.677592,0.559761
574,262,181,49,393,0.11086,0.591422,0.842444,0.591422,0.157556,0.69496,0.351412,1.682986,0.561299
575,261,182,49,393,0.11086,0.589165,0.841935,0.589165,0.158065,0.693227,0.350282,1.68197,0.561342
576,260,183,49,393,0.11086,0.586907,0.841424,0.586907,0.158576,0.691489,0.349153,1.680949,0.561617
577,259,184,49,393,0.11086,0.58465,0.840909,0.58465,0.159091,0.689747,0.348023,1.67992,0.561974
578,258,185,49,393,0.11086,0.582393,0.840391,0.582393,0.159609,0.688,0.346893,1.678885,0.562464
579,258,185,48,394,0.108597,0.582393,0.843137,0.582393,0.156863,0.688919,0.345763,1.684371,0.562827
580,257,186,48,394,0.108597,0.580135,0.842623,0.580135,0.157377,0.687166,0.344633,1.683344,0.564434
581,256,187,48,394,0.108597,0.577878,0.842105,0.577878,0.157895,0.685408,0.343503,1.68231,0.565438
582,255,188,48,394,0.108597,0.575621,0.841584,0.575621,0.158416,0.683646,0.342373,1.681269,0.566767
583,254,189,48,394,0.108597,0.573363,0.84106,0.573363,0.15894,0.681879,0.341243,1.680221,0.567517
584,253,190,48,394,0.108597,0.571106,0.840532,0.571106,0.159468,0.680108,0.340113,1.679166,0.568115
585,252,191,48,394,0.108597,0.568849,0.84,0.568849,0.16,0.678331,0.338983,1.678104,0.568408
586,251,192,48,394,0.108597,0.566591,0.839465,0.566591,0.160535,0.67655,0.337853,1.677035,0.568731
587,251,192,47,395,0.106335,0.566591,0.842282,0.566591,0.157718,0.677463,0.336723,1.682662,0.570103
588,250,193,47,395,0.106335,0.564334,0.841751,0.564334,0.158249,0.675676,0.335593,1.681602,0.570258
589,250,193,46,396,0.104072,0.564334,0.844595,0.564334,0.155405,0.67659,0.334463,1.687283,0.570381
590,249,194,46,396,0.104072,0.562077,0.844068,0.562077,0.155932,0.674797,0.333333,1.68623,0.572278
591,249,194,45,397,0.10181,0.562077,0.846939,0.562077,0.153061,0.675712,0.332203,1.691966,0.572892
592,249,194,44,398,0.099548,0.562077,0.849829,0.562077,0.150171,0.67663,0.331073,1.69774,0.573889
593,248,195,44,398,0.099548,0.559819,0.849315,0.559819,0.150685,0.67483,0.329944,1.696713,0.574098
594,247,196,44,398,0.099548,0.557562,0.848797,0.557562,0.151203,0.673025,0.328814,1.695678,0.574915
595,247,196,43,399,0.097285,0.557562,0.851724,0.557562,0.148276,0.673943,0.327684,1.701526,0.574941
596,246,197,43,399,0.097285,0.555305,0.851211,0.555305,0.148789,0.672131,0.326554,1.700501,0.575052
597,245,198,43,399,0.097285,0.553047,0.850694,0.553047,0.149306,0.670315,0.325424,1.699469,0.575209
598,245,198,42,400,0.095023,0.553047,0.853659,0.553047,0.146341,0.671233,0.324294,1.70539,0.575381
599,244,199,42,400,0.095023,0.55079,0.853147,0.55079,0.146853,0.66941,0.323164,1.704368,0.576672
600,244,199,41,401,0.09276,0.55079,0.85614,0.55079,0.14386,0.67033,0.322034,1.710348,0.580447
601,243,200,41,401,0.09276,0.548533,0.855634,0.548533,0.144366,0.668501,0.320904,1.709336,0.580969
602,243,200,40,402,0.090498,0.548533,0.858657,0.548533,0.141343,0.669421,0.319774,1.715376,0.58157
603,243,200,39,403,0.088235,0.548533,0.861702,0.548533,0.138298,0.670345,0.318644,1.721459,0.582895
604,243,200,38,404,0.085973,0.548533,0.864769,0.548533,0.135231,0.671271,0.317514,1.727585,0.582963
605,242,201,38,404,0.085973,0.546275,0.864286,0.546275,0.135714,0.669433,0.316384,1.72662,0.5836
606,241,202,38,404,0.085973,0.544018,0.863799,0.544018,0.136201,0.66759,0.315254,1.725649,0.584677
607,241,202,37,405,0.08371,0.544018,0.866906,0.544018,0.133094,0.668516,0.314124,1.731856,0.585587
608,240,203,37,405,0.08371,0.541761,0.866426,0.541761,0.133574,0.666667,0.312994,1.730896,0.587055
609,239,204,37,405,0.08371,0.539503,0.865942,0.539503,0.134058,0.664812,0.311864,1.729929,0.58782
610,238,205,37,405,0.08371,0.537246,0.865455,0.537246,0.134545,0.662953,0.310734,1.728955,0.589321
611,237,206,37,405,0.08371,0.534989,0.864964,0.534989,0.135036,0.661088,0.309605,1.727974,0.589578
612,236,207,37,405,0.08371,0.532731,0.864469,0.532731,0.135531,0.659218,0.308475,1.726986,0.590134
613,235,208,37,405,0.08371,0.530474,0.863971,0.530474,0.136029,0.657343,0.307345,1.725991,0.590362
614,234,209,37,405,0.08371,0.528217,0.863469,0.528217,0.136531,0.655462,0.306215,1.724988,0.591301
615,233,210,37,405,0.08371,0.525959,0.862963,0.525959,0.137037,0.653576,0.305085,1.723978,0.591336
616,232,211,37,405,0.08371,0.523702,0.862454,0.523702,0.137546,0.651685,0.303955,1.72296,0.591393
617,231,212,37,405,0.08371,0.521445,0.86194,0.521445,0.13806,0.649789,0.302825,1.721935,0.592238
618,230,213,37,405,0.08371,0.519187,0.861423,0.519187,0.138577,0.647887,0.301695,1.720902,0.593046
619,229,214,37,405,0.08371,0.51693,0.860902,0.51693,0.139098,0.64598,0.300565,1.719861,0.593298
620,229,214,36,406,0.081448,0.51693,0.864151,0.51693,0.135849,0.646893,0.299435,1.726351,0.59364
621,228,215,36,406,0.081448,0.514673,0.863636,0.514673,0.136364,0.644979,0.298305,1.725323,0.594933
622,227,216,36,406,0.081448,0.512415,0.863118,0.512415,0.136882,0.643059,0.297175,1.724287,0.595926
623,226,217,36,406,0.081448,0.510158,0.862595,0.510158,0.137405,0.641135,0.296045,1.723244,0.597832
624,225,218,36,406,0.081448,0.507901,0.862069,0.507901,0.137931,0.639205,0.294915,1.722192,0.599017
625,224,219,36,406,0.081448,0.505643,0.861538,0.505643,0.138462,0.637269,0.293785,1.721132,0.599836
626,223,220,36,406,0.081448,0.503386,0.861004,0.503386,0.138996,0.635328,0.292655,1.720064,0.603716
627,222,221,36,406,0.081448,0.501129,0.860465,0.501129,0.139535,0.633381,0.291525,1.718988,0.606258
628,222,221,35,407,0.079186,0.501129,0.863813,0.501129,0.136187,0.634286,0.290395,1.725677,0.607453
629,221,222,35,407,0.079186,0.498871,0.863281,0.498871,0.136719,0.632332,0.289266,1.724614,0.608016
630,221,222,34,408,0.076923,0.498871,0.866667,0.498871,0.133333,0.633238,0.288136,1.731377,0.608088
631,220,223,34,408,0.076923,0.496614,0.866142,0.496614,0.133858,0.631277,0.287006,1.730328,0.609498
632,219,224,34,408,0.076923,0.494357,0.865613,0.494357,0.134387,0.62931,0.285876,1.729271,0.609585
633,218,225,34,408,0.076923,0.492099,0.865079,0.492099,0.134921,0.627338,0.284746,1.728206,0.610154
634,217,226,34,408,0.076923,0.489842,0.864542,0.489842,0.135458,0.62536,0.283616,1.727132,0.61058
635,216,227,34,408,0.076923,0.487585,0.864,0.487585,0.136,0.623377,0.282486,1.72605,0.611405
636,216,227,33,409,0.074661,0.487585,0.86747,0.487585,0.13253,0.624277,0.281356,1.732982,0.614358
637,216,227,32,410,0.072398,0.487585,0.870968,0.487585,0.129032,0.625181,0.280226,1.739969,0.615887
638,215,228,32,410,0.072398,0.485327,0.870445,0.485327,0.129555,0.623188,0.279096,1.738926,0.615903
639,215,228,31,411,0.070136,0.485327,0.873984,0.485327,0.126016,0.624093,0.277966,1.745995,0.61715
640,214,229,31,411,0.070136,0.48307,0.873469,0.48307,0.126531,0.622093,0.276836,1.744967,0.61737
641,213,230,31,411,0.070136,0.480813,0.872951,0.480813,0.127049,0.620087,0.275706,1.743931,0.618397
642,212,231,31,411,0.070136,0.478555,0.872428,0.478555,0.127572,0.618076,0.274576,1.742887,0.61844
643,211,232,31,411,0.070136,0.476298,0.871901,0.476298,0.128099,0.616058,0.273446,1.741833,0.619358
644,211,232,30,412,0.067873,0.476298,0.875519,0.476298,0.124481,0.616959,0.272316,1.749061,0.620097
645,211,232,29,413,0.065611,0.476298,0.879167,0.476298,0.120833,0.617862,0.271186,1.756349,0.620634
646,210,233,29,413,0.065611,0.474041,0.878661,0.474041,0.121339,0.615836,0.270056,1.755339,0.620914
647,209,234,29,413,0.065611,0.471783,0.878151,0.471783,0.121849,0.613803,0.268927,1.75432,0.621104
648,208,235,29,413,0.065611,0.469526,0.877637,0.469526,0.122363,0.611765,0.267797,1.753293,0.621997
649,207,236,29,413,0.065611,0.467269,0.877119,0.467269,0.122881,0.60972,0.266667,1.752257,0.62208
650,206,237,29,413,0.065611,0.465011,0.876596,0.465011,0.123404,0.60767,0.265537,1.751213,0.622222
651,205,238,29,413,0.065611,0.462754,0.876068,0.462754,0.123932,0.605613,0.264407,1.750159,0.623199
652,204,239,29,413,0.065611,0.460497,0.875536,0.460497,0.124464,0.60355,0.263277,1.749097,0.626356
653,203,240,29,413,0.065611,0.458239,0.875,0.458239,0.125,0.601481,0.262147,1.748025,0.627332
654,203,240,28,414,0.063348,0.458239,0.878788,0.458239,0.121212,0.602374,0.261017,1.755592,0.627742
655,202,241,28,414,0.063348,0.455982,0.878261,0.455982,0.121739,0.600297,0.259887,1.754539,0.62814
656,201,242,28,414,0.063348,0.453725,0.877729,0.453725,0.122271,0.598214,0.258757,1.753477,0.631768
657,200,243,28,414,0.063348,0.451467,0.877193,0.451467,0.122807,0.596125,0.257627,1.752406,0.633111
658,200,243,27,415,0.061086,0.451467,0.881057,0.451467,0.118943,0.597015,0.256497,1.760126,0.633246
659,199,244,27,415,0.061086,0.44921,0.880531,0.44921,0.119469,0.594918,0.255367,1.759074,0.634366
660,198,245,27,415,0.061086,0.446953,0.88,0.446953,0.12,0.592814,0.254237,1.758014,0.63449
661,197,246,27,415,0.061086,0.444695,0.879464,0.444695,0.120536,0.590705,0.253107,1.756943,0.635179
662,196,247,27,415,0.061086,0.442438,0.878924,0.442438,0.121076,0.588589,0.251977,1.755864,0.635234
663,195,248,27,415,0.061086,0.440181,0.878378,0.440181,0.121622,0.586466,0.250847,1.754774,0.636488
664,194,249,27,415,0.061086,0.437923,0.877828,0.437923,0.122172,0.584337,0.249718,1.753675,0.636802
665,193,250,27,415,0.061086,0.435666,0.877273,0.435666,0.122727,0.582202,0.248588,1.752565,0.637674
666,193,250,26,416,0.058824,0.435666,0.881279,0.435666,0.118721,0.583082,0.247458,1.760568,0.639436
667,193,250,25,417,0.056561,0.435666,0.885321,0.435666,0.114679,0.583964,0.246328,1.768644,0.64084
668,193,250,24,418,0.054299,0.435666,0.889401,0.435666,0.110599,0.584848,0.245198,1.776794,0.642962
669,193,250,23,419,0.052036,0.435666,0.893519,0.435666,0.106481,0.585736,0.244068,1.78502,0.643188
670,192,251,23,419,0.052036,0.433409,0.893023,0.433409,0.106977,0.583587,0.242938,1.784031,0.644587
671,191,252,23,419,0.052036,0.431151,0.892523,0.431151,0.107477,0.581431,0.241808,1.783032,0.645721
672,191,252,22,420,0.049774,0.431151,0.896714,0.431151,0.103286,0.582317,0.240678,1.791403,0.646788
673,191,252,21,421,0.047511,0.431151,0.900943,0.431151,0.099057,0.583206,0.239548,1.799853,0.646818
674,190,253,21,421,0.047511,0.428894,0.900474,0.428894,0.099526,0.58104,0.238418,1.798915,0.648143
675,189,254,21,421,0.047511,0.426637,0.9,0.426637,0.1,0.578867,0.237288,1.797968,0.648218
676,188,255,21,421,0.047511,0.424379,0.899522,0.424379,0.100478,0.576687,0.236158,1.797013,0.651625
677,187,256,21,421,0.047511,0.422122,0.899038,0.422122,0.100962,0.574501,0.235028,1.796047,0.651847
678,186,257,21,421,0.047511,0.419865,0.898551,0.419865,0.101449,0.572308,0.233898,1.795073,0.654904
679,185,258,21,421,0.047511,0.417607,0.898058,0.417607,0.101942,0.570108,0.232768,1.794089,0.65499
680,184,259,21,421,0.047511,0.41535,0.897561,0.41535,0.102439,0.567901,0.231638,1.793096,0.655311
681,184,259,20,422,0.045249,0.41535,0.901961,0.41535,0.098039,0.568779,0.230508,1.801886,0.655433
682,183,260,20,422,0.045249,0.413093,0.901478,0.413093,0.098522,0.566563,0.229379,1.800921,0.655802
683,182,261,20,422,0.045249,0.410835,0.90099,0.410835,0.09901,0.564341,0.228249,1.799946,0.656437
684,181,262,20,422,0.045249,0.408578,0.900498,0.408578,0.099502,0.562112,0.227119,1.798962,0.657474
685,181,262,19,423,0.042986,0.408578,0.905,0.408578,0.095,0.562986,0.225989,1.807957,0.657499
686,181,262,18,424,0.040724,0.408578,0.909548,0.408578,0.090452,0.563863,0.224859,1.817042,0.66301
687,180,263,18,424,0.040724,0.406321,0.909091,0.406321,0.090909,0.561622,0.223729,1.81613,0.664433
688,179,264,18,424,0.040724,0.404063,0.908629,0.404063,0.091371,0.559375,0.222599,1.815208,0.664653
689,178,265,18,424,0.040724,0.401806,0.908163,0.401806,0.091837,0.557121,0.221469,1.814277,0.664884
690,178,265,17,425,0.038462,0.401806,0.912821,0.401806,0.087179,0.557994,0.220339,1.82358,0.664899
691,178,265,16,426,0.036199,0.401806,0.917526,0.401806,0.082474,0.55887,0.219209,1.83298,0.667152
692,177,266,16,426,0.036199,0.399549,0.917098,0.399549,0.082902,0.556604,0.218079,1.832127,0.668343
693,176,267,16,426,0.036199,0.397291,0.916667,0.397291,0.083333,0.554331,0.216949,1.831264,0.668558
694,175,268,16,426,0.036199,0.395034,0.91623,0.395034,0.08377,0.55205,0.215819,1.830392,0.668817
695,174,269,16,426,0.036199,0.392777,0.915789,0.392777,0.084211,0.549763,0.214689,1.829512,0.669173
696,173,270,16,426,0.036199,0.390519,0.915344,0.390519,0.084656,0.547468,0.213559,1.828622,0.669669
697,172,271,16,426,0.036199,0.388262,0.914894,0.388262,0.085106,0.545166,0.212429,1.827722,0.670891
698,171,272,16,426,0.036199,0.386005,0.914439,0.386005,0.085561,0.542857,0.211299,1.826813,0.671425
699,170,273,16,426,0.036199,0.383747,0.913978,0.383747,0.086022,0.540541,0.210169,1.825894,0.671605
700,169,274,16,426,0.036199,0.38149,0.913514,0.38149,0.086486,0.538217,0.20904,1.824965,0.672941
701,168,275,16,426,0.036199,0.379233,0.913043,0.379233,0.086957,0.535885,0.20791,1.824026,0.674263
702,167,276,16,426,0.036199,0.376975,0.912568,0.376975,0.087432,0.533546,0.20678,1.823077,0.675314
703,166,277,16,426,0.036199,0.374718,0.912088,0.374718,0.087912,0.5312,0.20565,1.822117,0.675397
704,165,278,16,426,0.036199,0.37246,0.911602,0.37246,0.088398,0.528846,0.20452,1.821147,0.676016
705,164,279,16,426,0.036199,0.370203,0.911111,0.370203,0.088889,0.526485,0.20339,1.820166,0.677713
706,164,279,15,427,0.033937,0.370203,0.916201,0.370203,0.083799,0.527331,0.20226,1.830334,0.677946
707,163,280,15,427,0.033937,0.367946,0.91573,0.367946,0.08427,0.52496,0.20113,1.829394,0.678065
708,163,280,14,428,0.031674,0.367946,0.920904,0.367946,0.079096,0.525806,0.2,1.839729,0.67888
709,162,281,14,428,0.031674,0.365688,0.920455,0.365688,0.079545,0.523425,0.19887,1.838831,0.679667
710,161,282,14,428,0.031674,0.363431,0.92,0.363431,0.08,0.521036,0.19774,1.837923,0.681145
711,161,282,13,429,0.029412,0.363431,0.925287,0.363431,0.074713,0.52188,0.19661,1.848486,0.681288
712,160,283,13,429,0.029412,0.361174,0.924855,0.361174,0.075145,0.519481,0.19548,1.847623,0.68356
713,159,284,13,429,0.029412,0.358916,0.924419,0.358916,0.075581,0.517073,0.19435,1.84675,0.683832
714,158,285,13,429,0.029412,0.356659,0.923977,0.356659,0.076023,0.514658,0.19322,1.845867,0.684238
715,157,286,13,429,0.029412,0.354402,0.923529,0.354402,0.076471,0.512235,0.19209,1.844974,0.68531
716,156,287,13,429,0.029412,0.352144,0.923077,0.352144,0.076923,0.509804,0.19096,1.84407,0.68665
717,155,288,13,429,0.029412,0.349887,0.922619,0.349887,0.077381,0.507365,0.189831,1.843155,0.688609
718,154,289,13,429,0.029412,0.34763,0.922156,0.34763,0.077844,0.504918,0.188701,1.84223,0.688814
719,153,290,13,429,0.029412,0.345372,0.921687,0.345372,0.078313,0.502463,0.187571,1.841293,0.690176
720,153,290,12,430,0.027149,0.345372,0.927273,0.345372,0.072727,0.503289,0.186441,1.852452,0.690273
721,152,291,12,430,0.027149,0.343115,0.926829,0.343115,0.073171,0.500824,0.185311,1.851566,0.690307
722,151,292,12,430,0.027149,0.340858,0.92638,0.340858,0.07362,0.49835,0.184181,1.85067,0.690642
723,150,293,12,430,0.027149,0.3386,0.925926,0.3386,0.074074,0.495868,0.183051,1.849762,0.691442
724,149,294,12,430,0.027149,0.336343,0.925466,0.336343,0.074534,0.493377,0.181921,1.848843,0.692309
725,149,294,11,431,0.024887,0.336343,0.93125,0.336343,0.06875,0.494196,0.180791,1.860398,0.694384
726,149,294,10,432,0.022624,0.336343,0.937107,0.336343,0.062893,0.495017,0.179661,1.872098,0.694624
727,148,295,10,432,0.022624,0.334086,0.936709,0.334086,0.063291,0.492512,0.178531,1.871303,0.695714
728,148,295,9,433,0.020362,0.334086,0.942675,0.334086,0.057325,0.493333,0.177401,1.883222,0.696844
729,147,296,9,433,0.020362,0.331828,0.942308,0.331828,0.057692,0.490818,0.176271,1.882488,0.697588
730,146,297,9,433,0.020362,0.329571,0.941935,0.329571,0.058065,0.488294,0.175141,1.881745,0.699043
731,145,298,9,433,0.020362,0.327314,0.941558,0.327314,0.058442,0.485762,0.174011,1.880991,0.701285
732,144,299,9,433,0.020362,0.325056,0.941176,0.325056,0.058824,0.483221,0.172881,1.880228,0.702832
733,143,300,9,433,0.020362,0.322799,0.940789,0.322799,0.059211,0.480672,0.171751,1.879455,0.703239
734,142,301,9,433,0.020362,0.320542,0.940397,0.320542,0.059603,0.478114,0.170621,1.878672,0.703705
735,141,302,9,433,0.020362,0.318284,0.94,0.318284,0.06,0.475548,0.169492,1.877878,0.704722
736,141,302,8,434,0.0181,0.318284,0.946309,0.318284,0.053691,0.476351,0.168362,1.890481,0.705715
737,141,302,7,435,0.015837,0.318284,0.952703,0.318284,0.047297,0.477157,0.167232,1.903255,0.705945
738,140,303,7,435,0.015837,0.316027,0.952381,0.316027,0.047619,0.474576,0.166102,1.902612,0.70735
739,139,304,7,435,0.015837,0.31377,0.952055,0.31377,0.047945,0.471986,0.164972,1.90196,0.711917
740,138,305,7,435,0.015837,0.311512,0.951724,0.311512,0.048276,0.469388,0.163842,1.9013,0.712823
741,137,306,7,435,0.015837,0.309255,0.951389,0.309255,0.048611,0.46678,0.162712,1.90063,0.714537
742,136,307,7,435,0.015837,0.306998,0.951049,0.306998,0.048951,0.464164,0.161582,1.899951,0.715305
743,135,308,7,435,0.015837,0.30474,0.950704,0.30474,0.049296,0.461538,0.160452,1.899262,0.71568
744,134,309,7,435,0.015837,0.302483,0.950355,0.302483,0.049645,0.458904,0.159322,1.898564,0.716897
745,133,310,7,435,0.015837,0.300226,0.95,0.300226,0.05,0.456261,0.158192,1.897856,0.717218
746,132,311,7,435,0.015837,0.297968,0.94964,0.297968,0.05036,0.453608,0.157062,1.897137,0.718482
747,131,312,7,435,0.015837,0.295711,0.949275,0.295711,0.050725,0.450947,0.155932,1.896408,0.719246
748,130,313,7,435,0.015837,0.293454,0.948905,0.293454,0.051095,0.448276,0.154802,1.895668,0.719986
749,129,314,7,435,0.015837,0.291196,0.948529,0.291196,0.051471,0.445596,0.153672,1.894918,0.722447
750,128,315,7,435,0.015837,0.288939,0.948148,0.288939,0.051852,0.442907,0.152542,1.894156,0.723236
751,127,316,7,435,0.015837,0.286682,0.947761,0.286682,0.052239,0.440208,0.151412,1.893383,0.725211
752,126,317,7,435,0.015837,0.284424,0.947368,0.284424,0.052632,0.4375,0.150282,1.892598,0.726418
753,125,318,7,435,0.015837,0.282167,0.94697,0.282167,0.05303,0.434783,0.149153,1.891802,0.727029
754,124,319,7,435,0.015837,0.27991,0.946565,0.27991,0.053435,0.432056,0.148023,1.890993,0.727297
755,123,320,7,435,0.015837,0.277652,0.946154,0.277652,0.053846,0.429319,0.146893,1.890172,0.727497
756,122,321,7,435,0.015837,0.275395,0.945736,0.275395,0.054264,0.426573,0.145763,1.889338,0.728945
757,121,322,7,435,0.015837,0.273138,0.945313,0.273138,0.054688,0.423818,0.144633,1.888491,0.729967
758,120,323,7,435,0.015837,0.27088,0.944882,0.27088,0.055118,0.421053,0.143503,1.887631,0.730508
759,119,324,7,435,0.015837,0.268623,0.944444,0.268623,0.055556,0.418278,0.142373,1.886757,0.731337
760,118,325,7,435,0.015837,0.266366,0.944,0.266366,0.056,0.415493,0.141243,1.885869,0.731615
761,117,326,7,435,0.015837,0.264108,0.943548,0.264108,0.056452,0.412698,0.140113,1.884967,0.731789
762,116,327,7,435,0.015837,0.261851,0.943089,0.261851,0.056911,0.409894,0.138983,1.88405,0.73284
763,115,328,7,435,0.015837,0.259594,0.942623,0.259594,0.057377,0.40708,0.137853,1.883118,0.733877
764,114,329,7,435,0.015837,0.257336,0.942149,0.257336,0.057851,0.404255,0.136723,1.882171,0.735258
765,113,330,7,435,0.015837,0.255079,0.941667,0.255079,0.058333,0.401421,0.135593,1.881208,0.736176
766,112,331,7,435,0.015837,0.252822,0.941176,0.252822,0.058824,0.398577,0.134463,1.880228,0.737987
767,111,332,7,435,0.015837,0.250564,0.940678,0.250564,0.059322,0.395722,0.133333,1.879233,0.73832
768,110,333,7,435,0.015837,0.248307,0.940171,0.248307,0.059829,0.392857,0.132203,1.87822,0.738654
769,109,334,7,435,0.015837,0.24605,0.939655,0.24605,0.060345,0.389982,0.131073,1.877189,0.738702
770,108,335,7,435,0.015837,0.243792,0.93913,0.243792,0.06087,0.387097,0.129944,1.876141,0.741823
771,107,336,7,435,0.015837,0.241535,0.938596,0.241535,0.061404,0.384201,0.128814,1.875074,0.743723
772,106,337,7,435,0.015837,0.239278,0.938053,0.239278,0.061947,0.381295,0.127684,1.873989,0.745594
773,106,337,6,436,0.013575,0.239278,0.946429,0.239278,0.053571,0.381982,0.126554,1.890721,0.749697
774,105,338,6,436,0.013575,0.23702,0.945946,0.23702,0.054054,0.379061,0.125424,1.889757,0.751487
775,104,339,6,436,0.013575,0.234763,0.945455,0.234763,0.054545,0.37613,0.124294,1.888775,0.752654
776,103,340,6,436,0.013575,0.232506,0.944954,0.232506,0.055046,0.373188,0.123164,1.887775,0.759599
777,102,341,6,436,0.013575,0.230248,0.944444,0.230248,0.055556,0.370236,0.122034,1.886757,0.762444
778,101,342,6,436,0.013575,0.227991,0.943925,0.227991,0.056075,0.367273,0.120904,1.88572,0.762993
779,100,343,6,436,0.013575,0.225734,0.943396,0.225734,0.056604,0.364299,0.119774,1.884663,0.76333
780,100,343,5,437,0.011312,0.225734,0.952381,0.225734,0.047619,0.364964,0.118644,1.902612,0.764372
781,99,344,5,437,0.011312,0.223476,0.951923,0.223476,0.048077,0.361974,0.117514,1.901697,0.764654
782,98,345,5,437,0.011312,0.221219,0.951456,0.221219,0.048544,0.358974,0.116384,1.900765,0.765731
783,98,345,4,438,0.00905,0.221219,0.960784,0.221219,0.039216,0.359633,0.115254,1.9194,0.766863
784,98,345,3,439,0.006787,0.221219,0.970297,0.221219,0.029703,0.360294,0.114124,1.938404,0.767964
785,97,346,3,439,0.006787,0.218962,0.97,0.218962,0.03,0.357274,0.112994,1.93781,0.768269
786,96,347,3,439,0.006787,0.216704,0.969697,0.216704,0.030303,0.354244,0.111864,1.937205,0.768395
787,95,348,3,439,0.006787,0.214447,0.969388,0.214447,0.030612,0.351201,0.110734,1.936587,0.771124
788,94,349,3,439,0.006787,0.21219,0.969072,0.21219,0.030928,0.348148,0.109605,1.935957,0.771703
789,94,349,2,440,0.004525,0.21219,0.979167,0.21219,0.020833,0.348794,0.108475,1.956123,0.774309
790,93,350,2,440,0.004525,0.209932,0.978947,0.209932,0.021053,0.345725,0.107345,1.955685,0.775459
791,92,351,2,440,0.004525,0.207675,0.978723,0.207675,0.021277,0.342644,0.106215,1.955238,0.776359
792,91,352,2,440,0.004525,0.205418,0.978495,0.205418,0.021505,0.339552,0.105085,1.95478,0.776536
793,90,353,2,440,0.004525,0.20316,0.978261,0.20316,0.021739,0.336449,0.103955,1.954313,0.778409
794,89,354,2,440,0.004525,0.200903,0.978022,0.200903,0.021978,0.333333,0.102825,1.953836,0.778576
795,88,355,2,440,0.004525,0.198646,0.977778,0.198646,0.022222,0.330206,0.101695,1.953348,0.783954
796,87,356,2,440,0.004525,0.196388,0.977528,0.196388,0.022472,0.327068,0.100565,1.95285,0.786267
797,86,357,2,440,0.004525,0.194131,0.977273,0.194131,0.022727,0.323917,0.099435,1.952339,0.787348
798,85,358,2,440,0.004525,0.191874,0.977011,0.191874,0.022989,0.320755,0.098305,1.951818,0.790192
799,84,359,2,440,0.004525,0.189616,0.976744,0.189616,0.023256,0.31758,0.097175,1.951284,0.791084
800,83,360,2,440,0.004525,0.187359,0.976471,0.187359,0.023529,0.314394,0.096045,1.950737,0.791193
801,82,361,2,440,0.004525,0.185102,0.97619,0.185102,0.02381,0.311195,0.094915,1.950177,0.794919
802,81,362,2,440,0.004525,0.182844,0.975904,0.182844,0.024096,0.307985,0.093785,1.949604,0.795448
803,80,363,2,440,0.004525,0.180587,0.97561,0.180587,0.02439,0.304762,0.092655,1.949017,0.797807
804,79,364,2,440,0.004525,0.17833,0.975309,0.17833,0.024691,0.301527,0.091525,1.948416,0.798564
805,78,365,2,440,0.004525,0.176072,0.975,0.176072,0.025,0.298279,0.090395,1.947799,0.799248
806,77,366,2,440,0.004525,0.173815,0.974684,0.173815,0.025316,0.295019,0.089266,1.947167,0.802235
807,76,367,2,440,0.004525,0.171558,0.974359,0.171558,0.025641,0.291747,0.088136,1.946518,0.804134
808,75,368,2,440,0.004525,0.1693,0.974026,0.1693,0.025974,0.288462,0.087006,1.945853,0.804913
809,74,369,2,440,0.004525,0.167043,0.973684,0.167043,0.026316,0.285164,0.085876,1.94517,0.807111
810,73,370,2,440,0.004525,0.164786,0.973333,0.164786,0.026667,0.281853,0.084746,1.94447,0.807399
811,72,371,2,440,0.004525,0.162528,0.972973,0.162528,0.027027,0.27853,0.083616,1.94375,0.809969
812,71,372,2,440,0.004525,0.160271,0.972603,0.160271,0.027397,0.275194,0.082486,1.94301,0.812167
813,70,373,2,440,0.004525,0.158014,0.972222,0.158014,0.027778,0.271845,0.081356,1.94225,0.812347
814,69,374,2,440,0.004525,0.155756,0.971831,0.155756,0.028169,0.268482,0.080226,1.941468,0.81262
815,68,375,2,440,0.004525,0.153499,0.971429,0.153499,0.028571,0.265107,0.079096,1.940664,0.814167
816,67,376,2,440,0.004525,0.151242,0.971014,0.151242,0.028986,0.261719,0.077966,1.939837,0.814252
817,66,377,2,440,0.004525,0.148984,0.970588,0.148984,0.029412,0.258317,0.076836,1.938986,0.814713
818,65,378,2,440,0.004525,0.146727,0.970149,0.146727,0.029851,0.254902,0.075706,1.938109,0.817046
819,64,379,2,440,0.004525,0.14447,0.969697,0.14447,0.030303,0.251473,0.074576,1.937205,0.817825
820,63,380,2,440,0.004525,0.142212,0.969231,0.142212,0.030769,0.248031,0.073446,1.936274,0.819317
821,62,381,2,440,0.004525,0.139955,0.96875,0.139955,0.03125,0.244576,0.072316,1.935313,0.820432
822,61,382,2,440,0.004525,0.137698,0.968254,0.137698,0.031746,0.241107,0.071186,1.934322,0.821196
823,60,383,2,440,0.004525,0.13544,0.967742,0.13544,0.032258,0.237624,0.070056,1.933299,0.821552
824,59,384,2,440,0.004525,0.133183,0.967213,0.133183,0.032787,0.234127,0.068927,1.932243,0.823341
825,58,385,2,440,0.004525,0.130926,0.966667,0.130926,0.033333,0.230616,0.067797,1.931151,0.825239
826,57,386,2,440,0.004525,0.128668,0.966102,0.128668,0.033898,0.227092,0.066667,1.930023,0.825336
827,56,387,2,440,0.004525,0.126411,0.965517,0.126411,0.034483,0.223553,0.065537,1.928855,0.826437
828,55,388,2,440,0.004525,0.124153,0.964912,0.124153,0.035088,0.22,0.064407,1.927646,0.826557
829,54,389,2,440,0.004525,0.121896,0.964286,0.121896,0.035714,0.216433,0.063277,1.926395,0.827305
830,53,390,2,440,0.004525,0.119639,0.963636,0.119639,0.036364,0.212851,0.062147,1.925097,0.828721
831,52,391,2,440,0.004525,0.117381,0.962963,0.117381,0.037037,0.209256,0.061017,1.923752,0.829353
832,51,392,2,440,0.004525,0.115124,0.962264,0.115124,0.037736,0.205645,0.059887,1.922356,0.830021
833,50,393,2,440,0.004525,0.112867,0.961538,0.112867,0.038462,0.20202,0.058757,1.920906,0.839085
834,49,394,2,440,0.004525,0.110609,0.960784,0.110609,0.039216,0.198381,0.057627,1.9194,0.839698
835,48,395,2,440,0.004525,0.108352,0.96,0.108352,0.04,0.194726,0.056497,1.917833,0.839782
836,47,396,2,440,0.004525,0.106095,0.959184,0.106095,0.040816,0.191057,0.055367,1.916202,0.840999
837,46,397,2,440,0.004525,0.103837,0.958333,0.103837,0.041667,0.187373,0.054237,1.914503,0.841016
838,46,397,1,441,0.002262,0.103837,0.978723,0.103837,0.021277,0.187755,0.053107,1.955238,0.846379
839,45,398,1,441,0.002262,0.10158,0.978261,0.10158,0.021739,0.184049,0.051977,1.954313,0.850331
840,44,399,1,441,0.002262,0.099323,0.977778,0.099323,0.022222,0.180328,0.050847,1.953348,0.850554
841,43,400,1,441,0.002262,0.097065,0.977273,0.097065,0.022727,0.176591,0.049718,1.952339,0.851077
842,42,401,1,441,0.002262,0.094808,0.976744,0.094808,0.023256,0.17284,0.048588,1.951284,0.851338
843,41,402,1,441,0.002262,0.092551,0.97619,0.092551,0.02381,0.169072,0.047458,1.950177,0.851502
844,40,403,1,441,0.002262,0.090293,0.97561,0.090293,0.02439,0.165289,0.046328,1.949017,0.853453
845,39,404,1,441,0.002262,0.088036,0.975,0.088036,0.025,0.161491,0.045198,1.947799,0.855733
846,38,405,1,441,0.002262,0.085779,0.974359,0.085779,0.025641,0.157676,0.044068,1.946518,0.856004
847,37,406,1,441,0.002262,0.083521,0.973684,0.083521,0.026316,0.153846,0.042938,1.94517,0.858112
848,36,407,1,441,0.002262,0.081264,0.972973,0.081264,0.027027,0.15,0.041808,1.94375,0.858559
849,36,407,0,442,0,0.081264,1,0.081264,0,0.150313,0.040678,1.997743,0.861002
850,35,408,0,442,0,0.079007,1,0.079007,0,0.146444,0.039548,1.997743,0.863532
851,34,409,0,442,0,0.076749,1,0.076749,0,0.142558,0.038418,1.997743,0.86399
852,33,410,0,442,0,0.074492,1,0.074492,0,0.138655,0.037288,1.997743,0.864577
853,32,411,0,442,0,0.072235,1,0.072235,0,0.134737,0.036158,1.997743,0.866218
854,31,412,0,442,0,0.069977,1,0.069977,0,0.130802,0.035028,1.997743,0.872898
855,30,413,0,442,0,0.06772,1,0.06772,0,0.12685,0.033898,1.997743,0.87456
856,29,414,0,442,0,0.065463,1,0.065463,0,0.122881,0.032768,1.997743,0.879719
857,28,415,0,442,0,0.063205,1,0.063205,0,0.118896,0.031638,1.997743,0.882551
858,27,416,0,442,0,0.060948,1,0.060948,0,0.114894,0.030508,1.997743,0.88437
859,26,417,0,442,0,0.058691,1,0.058691,0,0.110874,0.029379,1.997743,0.884501
860,25,418,0,442,0,0.056433,1,0.056433,0,0.106838,0.028249,1.997743,0.885818
861,24,419,0,442,0,0.054176,1,0.054176,0,0.102784,0.027119,1.997743,0.885853
862,23,420,0,442,0,0.051919,1,0.051919,0,0.098712,0.025989,1.997743,0.897841
863,22,421,0,442,0,0.049661,1,0.049661,0,0.094624,0.024859,1.997743,0.897889
864,21,422,0,442,0,0.047404,1,0.047404,0,0.090517,0.023729,1.997743,0.903687
865,20,423,0,442,0,0.045147,1,0.045147,0,0.086393,0.022599,1.997743,0.906709
866,19,424,0,442,0,0.042889,1,0.042889,0,0.082251,0.021469,1.997743,0.908451
867,18,425,0,442,0,0.040632,1,0.040632,0,0.078091,0.020339,1.997743,0.910083
868,17,426,0,442,0,0.038375,1,0.038375,0,0.073913,0.019209,1.997743,0.910889
869,16,427,0,442,0,0.036117,1,0.036117,0,0.069717,0.018079,1.997743,0.913042
870,15,428,0,442,0,0.03386,1,0.03386,0,0.065502,0.016949,1.997743,0.913748
871,14,429,0,442,0,0.031603,1,0.031603,0,0.061269,0.015819,1.997743,0.920967
872,13,430,0,442,0,0.029345,1,0.029345,0,0.057018,0.014689,1.997743,0.921652
873,12,431,0,442,0,0.027088,1,0.027088,0,0.052747,0.013559,1.997743,0.922607
874,11,432,0,442,0,0.024831,1,0.024831,0,0.048458,0.012429,1.997743,0.927818
875,10,433,0,442,0,0.022573,1,0.022573,0,0.04415,0.011299,1.997743,0.935945
876,9,434,0,442,0,0.020316,1,0.020316,0,0.039823,0.010169,1.997743,0.9385
877,8,435,0,442,0,0.018059,1,0.018059,0,0.035477,0.00904,1.997743,0.940781
878,7,436,0,442,0,0.015801,1,0.015801,0,0.031111,0.00791,1.997743,0.948743
879,6,437,0,442,0,0.013544,1,0.013544,0,0.026726,0.00678,1.997743,0.951482
880,5,438,0,442,0,0.011287,1,0.011287,0,0.022321,0.00565,1.997743,0.958418
881,4,439,0,442,0,0.009029,1,0.009029,0,0.017897,0.00452,1.997743,0.966336
882,3,440,0,442,0,0.006772,1,0.006772,0,0.013453,0.00339,1.997743,0.967036
883,2,441,0,442,0,0.004515,1,0.004515,0,0.008989,0.00226,1.997743,0.969158
884,1,442,0,442,0,0.002257,1,0.002257,0,0.004505,0.00113,?,0.971704
885,0,443,0,442,0,0,?,0,?,?,0,?,0.971714