@relation ThresholdCurve

@attribute Instance_number numeric
@attribute 'True Positives' numeric
@attribute 'False Negatives' numeric
@attribute 'False Positives' numeric
@attribute 'True Negatives' numeric
@attribute 'False Positive Rate' numeric
@attribute 'True Positive Rate' numeric
@attribute Precision numeric
@attribute Recall numeric
@attribute Fallout numeric
@attribute FMeasure numeric
@attribute 'Sample Size' numeric
@attribute Lift numeric
@attribute Threshold numeric

@data
0,443,0,442,0,1,1,0.500565,1,0.499435,0.667169,1,1,0.071616
1,443,0,441,1,0.997738,1,0.501131,1,0.498869,0.667671,0.99887,1.001131,0.077262
2,443,0,440,2,0.995475,1,0.501699,1,0.498301,0.668175,0.99774,1.002265,0.080788
3,443,0,439,3,0.993213,1,0.502268,1,0.497732,0.668679,0.99661,1.003401,0.082571
4,443,0,438,4,0.99095,1,0.502838,1,0.497162,0.669184,0.99548,1.00454,0.084199
5,443,0,437,5,0.988688,1,0.503409,1,0.496591,0.66969,0.99435,1.005682,0.084301
6,443,0,436,6,0.986425,1,0.503982,1,0.496018,0.670197,0.99322,1.006826,0.084919
7,443,0,435,7,0.984163,1,0.504556,1,0.495444,0.670704,0.99209,1.007973,0.086135
8,443,0,434,8,0.9819,1,0.505131,1,0.494869,0.671212,0.99096,1.009122,0.086576
9,443,0,433,9,0.979638,1,0.505708,1,0.494292,0.671721,0.989831,1.010274,0.086713
10,443,0,432,10,0.977376,1,0.506286,1,0.493714,0.672231,0.988701,1.011429,0.091388
11,443,0,431,11,0.975113,1,0.506865,1,0.493135,0.672741,0.987571,1.012586,0.091475
12,443,0,430,12,0.972851,1,0.507446,1,0.492554,0.673252,0.986441,1.013746,0.091556
13,443,0,429,13,0.970588,1,0.508028,1,0.491972,0.673764,0.985311,1.014908,0.092193
14,443,0,428,14,0.968326,1,0.508611,1,0.491389,0.674277,0.984181,1.016073,0.094253
15,443,0,427,15,0.966063,1,0.509195,1,0.490805,0.674791,0.983051,1.017241,0.099096
16,443,0,426,16,0.963801,1,0.509781,1,0.490219,0.675305,0.981921,1.018412,0.099914
17,443,0,425,17,0.961538,1,0.510369,1,0.489631,0.67582,0.980791,1.019585,0.100199
18,443,0,424,18,0.959276,1,0.510957,1,0.489043,0.676336,0.979661,1.020761,0.100595
19,443,0,423,19,0.957014,1,0.511547,1,0.488453,0.676853,0.978531,1.02194,0.102395
20,443,0,422,20,0.954751,1,0.512139,1,0.487861,0.67737,0.977401,1.023121,0.105351
21,443,0,421,21,0.952489,1,0.512731,1,0.487269,0.677888,0.976271,1.024306,0.106131
22,443,0,420,22,0.950226,1,0.513326,1,0.486674,0.678407,0.975141,1.025492,0.10675
23,443,0,419,23,0.947964,1,0.513921,1,0.486079,0.678927,0.974011,1.026682,0.108318
24,443,0,418,24,0.945701,1,0.514518,1,0.485482,0.679448,0.972881,1.027875,0.108483
25,443,0,417,25,0.943439,1,0.515116,1,0.484884,0.679969,0.971751,1.02907,0.109417
26,443,0,416,26,0.941176,1,0.515716,1,0.484284,0.680492,0.970621,1.030268,0.111447
27,443,0,415,27,0.938914,1,0.516317,1,0.483683,0.681015,0.969492,1.031469,0.111795
28,443,0,414,28,0.936652,1,0.516919,1,0.483081,0.681538,0.968362,1.032672,0.112075
29,442,1,414,28,0.936652,0.997743,0.516355,0.997743,0.483645,0.680523,0.967232,1.031545,0.112808
30,442,1,413,29,0.934389,0.997743,0.516959,0.997743,0.483041,0.681048,0.966102,1.032751,0.114074
31,442,1,412,30,0.932127,0.997743,0.517564,0.997743,0.482436,0.681573,0.964972,1.03396,0.115085
32,442,1,411,31,0.929864,0.997743,0.518171,0.997743,0.481829,0.682099,0.963842,1.035173,0.116171
33,442,1,410,32,0.927602,0.997743,0.518779,0.997743,0.481221,0.682625,0.962712,1.036388,0.116244
34,441,2,410,32,0.927602,0.995485,0.518214,0.995485,0.481786,0.681607,0.961582,1.035258,0.116794
35,441,2,409,33,0.925339,0.995485,0.518824,0.995485,0.481176,0.682135,0.960452,1.036476,0.116951
36,441,2,408,34,0.923077,0.995485,0.519435,0.995485,0.480565,0.682663,0.959322,1.037697,0.117073
37,441,2,407,35,0.920814,0.995485,0.520047,0.995485,0.479953,0.683191,0.958192,1.03892,0.117233
38,441,2,406,36,0.918552,0.995485,0.520661,0.995485,0.479339,0.683721,0.957062,1.040147,0.118276
39,441,2,405,37,0.91629,0.995485,0.521277,0.995485,0.478723,0.684251,0.955932,1.041376,0.120474
40,441,2,404,38,0.914027,0.995485,0.521893,0.995485,0.478107,0.684783,0.954802,1.042609,0.121183
41,441,2,403,39,0.911765,0.995485,0.522512,0.995485,0.477488,0.685315,0.953672,1.043844,0.121455
42,441,2,402,40,0.909502,0.995485,0.523132,0.995485,0.476868,0.685848,0.952542,1.045082,0.121843
43,441,2,401,41,0.90724,0.995485,0.523753,0.995485,0.476247,0.686381,0.951412,1.046324,0.122194
44,441,2,400,42,0.904977,0.995485,0.524376,0.995485,0.475624,0.686916,0.950282,1.047568,0.122207
45,441,2,399,43,0.902715,0.995485,0.525,0.995485,0.475,0.687451,0.949153,1.048815,0.122223
46,441,2,398,44,0.900452,0.995485,0.525626,0.995485,0.474374,0.687988,0.948023,1.050065,0.122888
47,441,2,397,45,0.89819,0.995485,0.526253,0.995485,0.473747,0.688525,0.946893,1.051318,0.123352
48,441,2,396,46,0.895928,0.995485,0.526882,0.995485,0.473118,0.689062,0.945763,1.052574,0.123489
49,441,2,395,47,0.893665,0.995485,0.527512,0.995485,0.472488,0.689601,0.944633,1.053833,0.124222
50,441,2,394,48,0.891403,0.995485,0.528144,0.995485,0.471856,0.690141,0.943503,1.055095,0.125585
51,441,2,393,49,0.88914,0.995485,0.528777,0.995485,0.471223,0.690681,0.942373,1.05636,0.125672
52,441,2,392,50,0.886878,0.995485,0.529412,0.995485,0.470588,0.691223,0.941243,1.057628,0.1268
53,441,2,391,51,0.884615,0.995485,0.530048,0.995485,0.469952,0.691765,0.940113,1.0589,0.126899
54,441,2,390,52,0.882353,0.995485,0.530686,0.995485,0.469314,0.692308,0.938983,1.060174,0.127223
55,441,2,389,53,0.88009,0.995485,0.531325,0.995485,0.468675,0.692852,0.937853,1.061451,0.127746
56,441,2,388,54,0.877828,0.995485,0.531966,0.995485,0.468034,0.693396,0.936723,1.062732,0.130078
57,441,2,387,55,0.875566,0.995485,0.532609,0.995485,0.467391,0.693942,0.935593,1.064015,0.130843
58,440,3,387,55,0.875566,0.993228,0.532044,0.993228,0.467956,0.692913,0.934463,1.062886,0.131111
59,440,3,386,56,0.873303,0.993228,0.532688,0.993228,0.467312,0.693459,0.933333,1.064173,0.131208
60,440,3,385,57,0.871041,0.993228,0.533333,0.993228,0.466667,0.694006,0.932203,1.065463,0.131699
61,440,3,384,58,0.868778,0.993228,0.533981,0.993228,0.466019,0.694554,0.931073,1.066756,0.132009
62,440,3,383,59,0.866516,0.993228,0.534629,0.993228,0.465371,0.695103,0.929944,1.068052,0.132357
63,439,4,383,59,0.866516,0.990971,0.534063,0.990971,0.465937,0.694071,0.928814,1.066921,0.134189
64,439,4,382,60,0.864253,0.990971,0.534714,0.990971,0.465286,0.69462,0.927684,1.06822,0.134356
65,439,4,381,61,0.861991,0.990971,0.535366,0.990971,0.464634,0.69517,0.926554,1.069523,0.136077
66,438,5,381,61,0.861991,0.988713,0.534799,0.988713,0.465201,0.694136,0.925424,1.06839,0.13612
67,438,5,380,62,0.859729,0.988713,0.535452,0.988713,0.464548,0.694687,0.924294,1.069696,0.136195
68,438,5,379,63,0.857466,0.988713,0.536108,0.988713,0.463892,0.695238,0.923164,1.071005,0.1381
69,438,5,378,64,0.855204,0.988713,0.536765,0.988713,0.463235,0.69579,0.922034,1.072318,0.138208
70,438,5,377,65,0.852941,0.988713,0.537423,0.988713,0.462577,0.696343,0.920904,1.073633,0.138931
71,438,5,376,66,0.850679,0.988713,0.538084,0.988713,0.461916,0.696897,0.919774,1.074952,0.13928
72,438,5,375,67,0.848416,0.988713,0.538745,0.988713,0.461255,0.697452,0.918644,1.076275,0.139286
73,438,5,374,68,0.846154,0.988713,0.539409,0.988713,0.460591,0.698008,0.917514,1.0776,0.139612
74,438,5,373,69,0.843891,0.988713,0.540074,0.988713,0.459926,0.698565,0.916384,1.078929,0.140343
75,438,5,372,70,0.841629,0.988713,0.540741,0.988713,0.459259,0.699122,0.915254,1.080261,0.140414
76,437,6,372,70,0.841629,0.986456,0.540173,0.986456,0.459827,0.698083,0.914124,1.079127,0.143051
77,437,6,371,71,0.839367,0.986456,0.540842,0.986456,0.459158,0.698641,0.912994,1.080462,0.143367
78,436,7,371,71,0.839367,0.984199,0.540273,0.984199,0.459727,0.6976,0.911864,1.079326,0.144064
79,436,7,370,72,0.837104,0.984199,0.540943,0.984199,0.459057,0.698159,0.910734,1.080665,0.147023
80,436,7,369,73,0.834842,0.984199,0.541615,0.984199,0.458385,0.698718,0.909605,1.082007,0.147104
81,436,7,368,74,0.832579,0.984199,0.542289,0.984199,0.457711,0.699278,0.908475,1.083353,0.148755
82,436,7,367,75,0.830317,0.984199,0.542964,0.984199,0.457036,0.699839,0.907345,1.084702,0.149283
83,436,7,366,76,0.828054,0.984199,0.543641,0.984199,0.456359,0.700402,0.906215,1.086055,0.149967
84,436,7,365,77,0.825792,0.984199,0.54432,0.984199,0.45568,0.700965,0.905085,1.08741,0.150393
85,436,7,364,78,0.823529,0.984199,0.545,0.984199,0.455,0.701529,0.903955,1.08877,0.15176
86,435,8,364,78,0.823529,0.981941,0.544431,0.981941,0.455569,0.700483,0.902825,1.087632,0.151908
87,434,9,364,78,0.823529,0.979684,0.54386,0.979684,0.45614,0.699436,0.901695,1.086492,0.155684
88,434,9,363,79,0.821267,0.979684,0.544542,0.979684,0.455458,0.7,0.900565,1.087855,0.156352
89,434,9,362,80,0.819005,0.979684,0.545226,0.979684,0.454774,0.700565,0.899435,1.089222,0.157408
90,434,9,361,81,0.816742,0.979684,0.545912,0.979684,0.454088,0.701131,0.898305,1.090592,0.157762
91,434,9,360,82,0.81448,0.979684,0.546599,0.979684,0.453401,0.701698,0.897175,1.091965,0.157875
92,434,9,359,83,0.812217,0.979684,0.547289,0.979684,0.452711,0.702265,0.896045,1.093342,0.158348
93,434,9,358,84,0.809955,0.979684,0.54798,0.979684,0.45202,0.702834,0.894915,1.094723,0.163753
94,434,9,357,85,0.807692,0.979684,0.548673,0.979684,0.451327,0.703404,0.893785,1.096107,0.165142
95,433,10,357,85,0.807692,0.977427,0.548101,0.977427,0.451899,0.702352,0.892655,1.094965,0.167554
96,432,11,357,85,0.807692,0.975169,0.547529,0.975169,0.452471,0.701299,0.891525,1.093821,0.16774
97,432,11,356,86,0.80543,0.975169,0.548223,0.975169,0.451777,0.701868,0.890395,1.095209,0.168562
98,431,12,356,86,0.80543,0.972912,0.547649,0.972912,0.452351,0.700813,0.889266,1.094062,0.170723
99,431,12,355,87,0.803167,0.972912,0.548346,0.972912,0.451654,0.701383,0.888136,1.095454,0.171672
100,431,12,354,88,0.800905,0.972912,0.549045,0.972912,0.450955,0.701954,0.887006,1.09685,0.172107
101,431,12,353,89,0.798643,0.972912,0.549745,0.972912,0.450255,0.702526,0.885876,1.098249,0.17325
102,431,12,352,90,0.79638,0.972912,0.550447,0.972912,0.449553,0.7031,0.884746,1.099651,0.174618
103,431,12,351,91,0.794118,0.972912,0.551151,0.972912,0.448849,0.703673,0.883616,1.101058,0.176009
104,431,12,350,92,0.791855,0.972912,0.551857,0.972912,0.448143,0.704248,0.882486,1.102467,0.176172
105,431,12,349,93,0.789593,0.972912,0.552564,0.972912,0.447436,0.704824,0.881356,1.103881,0.178129
106,431,12,348,94,0.78733,0.972912,0.553273,0.972912,0.446727,0.705401,0.880226,1.105298,0.179415
107,431,12,347,95,0.785068,0.972912,0.553985,0.972912,0.446015,0.705979,0.879096,1.106719,0.181034
108,431,12,346,96,0.782805,0.972912,0.554698,0.972912,0.445302,0.706557,0.877966,1.108143,0.181163
109,431,12,345,97,0.780543,0.972912,0.555412,0.972912,0.444588,0.707137,0.876836,1.109571,0.182516
110,430,13,345,97,0.780543,0.970655,0.554839,0.970655,0.445161,0.706076,0.875706,1.108425,0.183656
111,430,13,344,98,0.778281,0.970655,0.555556,0.970655,0.444444,0.706656,0.874576,1.109857,0.183837
112,430,13,343,99,0.776018,0.970655,0.556274,0.970655,0.443726,0.707237,0.873446,1.111293,0.184116
113,430,13,342,100,0.773756,0.970655,0.556995,0.970655,0.443005,0.707819,0.872316,1.112732,0.184188
114,430,13,341,101,0.771493,0.970655,0.557717,0.970655,0.442283,0.708402,0.871186,1.114176,0.184723
115,430,13,340,102,0.769231,0.970655,0.558442,0.970655,0.441558,0.708986,0.870056,1.115623,0.185254
116,430,13,339,103,0.766968,0.970655,0.559168,0.970655,0.440832,0.709571,0.868927,1.117073,0.185753
117,430,13,338,104,0.764706,0.970655,0.559896,0.970655,0.440104,0.710157,0.867797,1.118528,0.185802
118,430,13,337,105,0.762443,0.970655,0.560626,0.970655,0.439374,0.710744,0.866667,1.119986,0.186
119,430,13,336,106,0.760181,0.970655,0.561358,0.970655,0.438642,0.711332,0.865537,1.121448,0.187153
120,430,13,335,107,0.757919,0.970655,0.562092,0.970655,0.437908,0.711921,0.864407,1.122914,0.188123
121,430,13,334,108,0.755656,0.970655,0.562827,0.970655,0.437173,0.71251,0.863277,1.124384,0.188156
122,430,13,333,109,0.753394,0.970655,0.563565,0.970655,0.436435,0.713101,0.862147,1.125858,0.190774
123,430,13,332,110,0.751131,0.970655,0.564304,0.970655,0.435696,0.713693,0.861017,1.127335,0.192764
124,430,13,331,111,0.748869,0.970655,0.565046,0.970655,0.434954,0.714286,0.859887,1.128816,0.19406
125,430,13,330,112,0.746606,0.970655,0.565789,0.970655,0.434211,0.714879,0.858757,1.130302,0.1945
126,430,13,329,113,0.744344,0.970655,0.566535,0.970655,0.433465,0.715474,0.857627,1.131791,0.195615
127,430,13,328,114,0.742081,0.970655,0.567282,0.970655,0.432718,0.71607,0.856497,1.133284,0.198828
128,430,13,327,115,0.739819,0.970655,0.568032,0.970655,0.431968,0.716667,0.855367,1.134781,0.199437
129,430,13,326,116,0.737557,0.970655,0.568783,0.970655,0.431217,0.717264,0.854237,1.136282,0.199947
130,429,14,326,116,0.737557,0.968397,0.568212,0.968397,0.431788,0.716194,0.853107,1.135141,0.200453
131,428,15,326,116,0.737557,0.96614,0.567639,0.96614,0.432361,0.715121,0.851977,1.133997,0.200991
132,428,15,325,117,0.735294,0.96614,0.568393,0.96614,0.431607,0.715719,0.850847,1.135503,0.205037
133,428,15,324,118,0.733032,0.96614,0.569149,0.96614,0.430851,0.716318,0.849718,1.137013,0.206807
134,428,15,323,119,0.730769,0.96614,0.569907,0.96614,0.430093,0.716918,0.848588,1.138527,0.210221
135,428,15,322,120,0.728507,0.96614,0.570667,0.96614,0.429333,0.717519,0.847458,1.140045,0.212648
136,427,16,322,120,0.728507,0.963883,0.570093,0.963883,0.429907,0.716443,0.846328,1.1389,0.213541
137,427,16,321,121,0.726244,0.963883,0.570856,0.963883,0.429144,0.717045,0.845198,1.140423,0.215572
138,427,16,320,122,0.723982,0.963883,0.57162,0.963883,0.42838,0.717647,0.844068,1.141949,0.21682
139,427,16,319,123,0.721719,0.963883,0.572386,0.963883,0.427614,0.718251,0.842938,1.14348,0.218312
140,427,16,318,124,0.719457,0.963883,0.573154,0.963883,0.426846,0.718855,0.841808,1.145015,0.218781
141,427,16,317,125,0.717195,0.963883,0.573925,0.963883,0.426075,0.719461,0.840678,1.146554,0.220359
142,427,16,316,126,0.714932,0.963883,0.574697,0.963883,0.425303,0.720067,0.839548,1.148097,0.223314
143,427,16,315,127,0.71267,0.963883,0.575472,0.963883,0.424528,0.720675,0.838418,1.149644,0.223513
144,427,16,314,128,0.710407,0.963883,0.576248,0.963883,0.423752,0.721284,0.837288,1.151196,0.228347
145,427,16,313,129,0.708145,0.963883,0.577027,0.963883,0.422973,0.721893,0.836158,1.152752,0.228933
146,426,17,313,129,0.708145,0.961625,0.576455,0.961625,0.423545,0.720812,0.835028,1.151608,0.230502
147,426,17,312,130,0.705882,0.961625,0.577236,0.961625,0.422764,0.721423,0.833898,1.153169,0.230773
148,426,17,311,131,0.70362,0.961625,0.578019,0.961625,0.421981,0.722034,0.832768,1.154733,0.230809
149,425,18,311,131,0.70362,0.959368,0.577446,0.959368,0.422554,0.72095,0.831638,1.153588,0.231774
150,425,18,310,132,0.701357,0.959368,0.578231,0.959368,0.421769,0.721562,0.830508,1.155157,0.232924
151,425,18,309,133,0.699095,0.959368,0.579019,0.959368,0.420981,0.722175,0.829379,1.156731,0.233261
152,425,18,308,134,0.696833,0.959368,0.579809,0.959368,0.420191,0.722789,0.828249,1.158309,0.233815
153,424,19,308,134,0.696833,0.957111,0.579235,0.957111,0.420765,0.721702,0.827119,1.157162,0.233871
154,423,20,308,134,0.696833,0.954853,0.578659,0.954853,0.421341,0.720613,0.825989,1.156013,0.236265
155,423,20,307,135,0.69457,0.954853,0.579452,0.954853,0.420548,0.721228,0.824859,1.157596,0.238177
156,422,21,307,135,0.69457,0.952596,0.578875,0.952596,0.421125,0.720137,0.823729,1.156444,0.238604
157,422,21,306,136,0.692308,0.952596,0.57967,0.952596,0.42033,0.720751,0.822599,1.158032,0.239209
158,422,21,305,137,0.690045,0.952596,0.580468,0.952596,0.419532,0.721368,0.821469,1.159625,0.240598
159,422,21,304,138,0.687783,0.952596,0.581267,0.952596,0.418733,0.721985,0.820339,1.161222,0.241028
160,422,21,303,139,0.68552,0.952596,0.582069,0.952596,0.417931,0.722603,0.819209,1.162824,0.242763
161,421,22,303,139,0.68552,0.950339,0.581492,0.950339,0.418508,0.721508,0.818079,1.161671,0.244836
162,420,23,303,139,0.68552,0.948081,0.580913,0.948081,0.419087,0.720412,0.816949,1.160514,0.245487
163,420,23,302,140,0.683258,0.948081,0.581717,0.948081,0.418283,0.72103,0.815819,1.162122,0.2461
164,419,24,302,140,0.683258,0.945824,0.581137,0.945824,0.418863,0.719931,0.814689,1.160963,0.247382
165,419,24,301,141,0.680995,0.945824,0.581944,0.945824,0.418056,0.72055,0.813559,1.162575,0.247641
166,419,24,300,142,0.678733,0.945824,0.582754,0.945824,0.417246,0.72117,0.812429,1.164192,0.248338
167,419,24,299,143,0.676471,0.945824,0.583565,0.945824,0.416435,0.721792,0.811299,1.165814,0.249256
168,419,24,298,144,0.674208,0.945824,0.584379,0.945824,0.415621,0.722414,0.810169,1.16744,0.249813
169,419,24,297,145,0.671946,0.945824,0.585196,0.945824,0.414804,0.723037,0.80904,1.16907,0.250466
170,419,24,296,146,0.669683,0.945824,0.586014,0.945824,0.413986,0.723661,0.80791,1.170705,0.251022
171,419,24,295,147,0.667421,0.945824,0.586835,0.945824,0.413165,0.724287,0.80678,1.172345,0.251264
172,419,24,294,148,0.665158,0.945824,0.587658,0.945824,0.412342,0.724913,0.80565,1.173989,0.251405
173,419,24,293,149,0.662896,0.945824,0.588483,0.945824,0.411517,0.725541,0.80452,1.175638,0.251643
174,418,25,293,149,0.662896,0.943567,0.587904,0.943567,0.412096,0.724437,0.80339,1.174482,0.251659
175,418,25,292,150,0.660633,0.943567,0.588732,0.943567,0.411268,0.725065,0.80226,1.176136,0.254366
176,417,26,292,150,0.660633,0.941309,0.588152,0.941309,0.411848,0.723958,0.80113,1.174977,0.25692
177,417,26,291,151,0.658371,0.941309,0.588983,0.941309,0.411017,0.724587,0.8,1.176637,0.25916
178,416,27,291,151,0.658371,0.939052,0.588402,0.939052,0.411598,0.723478,0.79887,1.175475,0.259246
179,416,27,290,152,0.656109,0.939052,0.589235,0.939052,0.410765,0.724108,0.79774,1.17714,0.260062
180,416,27,289,153,0.653846,0.939052,0.590071,0.939052,0.409929,0.724739,0.79661,1.17881,0.260736
181,415,28,289,153,0.653846,0.936795,0.589489,0.936795,0.410511,0.723627,0.79548,1.177647,0.262195
182,414,29,289,153,0.653846,0.934537,0.588905,0.934537,0.411095,0.722513,0.79435,1.17648,0.264528
183,414,29,288,154,0.651584,0.934537,0.589744,0.934537,0.410256,0.723144,0.79322,1.178156,0.264607
184,414,29,287,155,0.649321,0.934537,0.590585,0.934537,0.409415,0.723776,0.79209,1.179837,0.264732
185,414,29,286,156,0.647059,0.934537,0.591429,0.934537,0.408571,0.724409,0.79096,1.181522,0.265994
186,414,29,285,157,0.644796,0.934537,0.592275,0.934537,0.407725,0.725044,0.789831,1.183212,0.266102
187,413,30,285,157,0.644796,0.93228,0.591691,0.93228,0.408309,0.723926,0.788701,1.182045,0.266193
188,413,30,284,158,0.642534,0.93228,0.592539,0.93228,0.407461,0.724561,0.787571,1.183741,0.266379
189,413,30,283,159,0.640271,0.93228,0.593391,0.93228,0.406609,0.725198,0.786441,1.185442,0.268067
190,413,30,282,160,0.638009,0.93228,0.594245,0.93228,0.405755,0.725835,0.785311,1.187148,0.268294
191,413,30,281,161,0.635747,0.93228,0.595101,0.93228,0.404899,0.726473,0.784181,1.188858,0.268304
192,413,30,280,162,0.633484,0.93228,0.59596,0.93228,0.40404,0.727113,0.783051,1.190574,0.268556
193,413,30,279,163,0.631222,0.93228,0.596821,0.93228,0.403179,0.727753,0.781921,1.192294,0.268911
194,413,30,278,164,0.628959,0.93228,0.597685,0.93228,0.402315,0.728395,0.780791,1.19402,0.269062
195,412,31,278,164,0.628959,0.930023,0.597101,0.930023,0.402899,0.727273,0.779661,1.192855,0.269684
196,412,31,277,165,0.626697,0.930023,0.597968,0.930023,0.402032,0.727915,0.778531,1.194586,0.271343
197,412,31,276,166,0.624434,0.930023,0.598837,0.930023,0.401163,0.728559,0.777401,1.196323,0.271552
198,412,31,275,167,0.622172,0.930023,0.599709,0.930023,0.400291,0.729204,0.776271,1.198064,0.273533
199,412,31,274,168,0.61991,0.930023,0.600583,0.930023,0.399417,0.729849,0.775141,1.19981,0.274737
200,412,31,273,169,0.617647,0.930023,0.60146,0.930023,0.39854,0.730496,0.774011,1.201562,0.275771
201,412,31,272,170,0.615385,0.930023,0.602339,0.930023,0.397661,0.731145,0.772881,1.203319,0.276821
202,411,32,272,170,0.615385,0.927765,0.601757,0.927765,0.398243,0.730018,0.771751,1.202156,0.276898
203,411,32,271,171,0.613122,0.927765,0.602639,0.927765,0.397361,0.730667,0.770621,1.203918,0.277565
204,411,32,270,172,0.61086,0.927765,0.603524,0.927765,0.396476,0.731317,0.769492,1.205686,0.27759
205,410,33,270,172,0.61086,0.925508,0.602941,0.925508,0.397059,0.730187,0.768362,1.204521,0.278292
206,409,34,270,172,0.61086,0.923251,0.602356,0.923251,0.397644,0.729055,0.767232,1.203353,0.278381
207,409,34,269,173,0.608597,0.923251,0.603245,0.923251,0.396755,0.729706,0.766102,1.205128,0.279116
208,408,35,269,173,0.608597,0.920993,0.602659,0.920993,0.397341,0.728571,0.764972,1.203957,0.279591
209,408,35,268,174,0.606335,0.920993,0.60355,0.920993,0.39645,0.729223,0.763842,1.205738,0.280802
210,408,35,267,175,0.604072,0.920993,0.604444,0.920993,0.395556,0.729875,0.762712,1.207524,0.28173
211,407,36,267,175,0.604072,0.918736,0.603858,0.918736,0.396142,0.728738,0.761582,1.206352,0.282466
212,407,36,266,176,0.60181,0.918736,0.604755,0.918736,0.395245,0.729391,0.760452,1.208145,0.282505
213,407,36,265,177,0.599548,0.918736,0.605655,0.918736,0.394345,0.730045,0.759322,1.209942,0.283143
214,406,37,265,177,0.599548,0.916479,0.605067,0.916479,0.394933,0.728905,0.758192,1.208768,0.284653
215,406,37,264,178,0.597285,0.916479,0.60597,0.916479,0.39403,0.72956,0.757062,1.210572,0.286797
216,406,37,263,179,0.595023,0.916479,0.606876,0.916479,0.393124,0.730216,0.755932,1.212382,0.288882
217,406,37,262,180,0.59276,0.916479,0.607784,0.916479,0.392216,0.730873,0.754802,1.214197,0.288978
218,406,37,261,181,0.590498,0.916479,0.608696,0.916479,0.391304,0.731532,0.753672,1.216017,0.289212
219,406,37,260,182,0.588235,0.916479,0.60961,0.916479,0.39039,0.732191,0.752542,1.217843,0.289897
220,405,38,260,182,0.588235,0.914221,0.609023,0.914221,0.390977,0.731047,0.751412,1.21667,0.29031
221,405,38,259,183,0.585973,0.914221,0.60994,0.914221,0.39006,0.731707,0.750282,1.218503,0.292126
222,405,38,258,184,0.58371,0.914221,0.61086,0.914221,0.38914,0.732369,0.749153,1.220341,0.293073
223,405,38,257,185,0.581448,0.914221,0.611782,0.914221,0.388218,0.733032,0.748023,1.222184,0.294659
224,405,38,256,186,0.579186,0.914221,0.612708,0.914221,0.387292,0.733696,0.746893,1.224033,0.295243
225,405,38,255,187,0.576923,0.914221,0.613636,0.914221,0.386364,0.734361,0.745763,1.225888,0.297835
226,405,38,254,188,0.574661,0.914221,0.614568,0.914221,0.385432,0.735027,0.744633,1.227748,0.299051
227,405,38,253,189,0.572398,0.914221,0.615502,0.914221,0.384498,0.735695,0.743503,1.229614,0.299193
228,405,38,252,190,0.570136,0.914221,0.616438,0.914221,0.383562,0.736364,0.742373,1.231485,0.300937
229,405,38,251,191,0.567873,0.914221,0.617378,0.914221,0.382622,0.737034,0.741243,1.233362,0.302898
230,405,38,250,192,0.565611,0.914221,0.618321,0.914221,0.381679,0.737705,0.740113,1.235245,0.303974
231,405,38,249,193,0.563348,0.914221,0.619266,0.914221,0.380734,0.738377,0.738983,1.237134,0.30426
232,405,38,248,194,0.561086,0.914221,0.620214,0.914221,0.379786,0.739051,0.737853,1.239029,0.304865
233,404,39,248,194,0.561086,0.911964,0.619632,0.911964,0.380368,0.7379,0.736723,1.237865,0.304958
234,404,39,247,195,0.558824,0.911964,0.620584,0.911964,0.379416,0.738574,0.735593,1.239767,0.305516
235,404,39,246,196,0.556561,0.911964,0.621538,0.911964,0.378462,0.73925,0.734463,1.241674,0.305749
236,404,39,245,197,0.554299,0.911964,0.622496,0.911964,0.377504,0.739927,0.733333,1.243587,0.306174
237,404,39,244,198,0.552036,0.911964,0.623457,0.911964,0.376543,0.740605,0.732203,1.245506,0.307315
238,404,39,243,199,0.549774,0.911964,0.62442,0.911964,0.37558,0.741284,0.731073,1.247431,0.311364
239,404,39,242,200,0.547511,0.911964,0.625387,0.911964,0.374613,0.741965,0.729944,1.249362,0.314471
240,403,40,242,200,0.547511,0.909707,0.624806,0.909707,0.375194,0.740809,0.728814,1.248202,0.314718
241,403,40,241,201,0.545249,0.909707,0.625776,0.909707,0.374224,0.74149,0.727684,1.25014,0.31564
242,403,40,240,202,0.542986,0.909707,0.62675,0.909707,0.37325,0.742173,0.726554,1.252084,0.317811
243,402,41,240,202,0.542986,0.907449,0.626168,0.907449,0.373832,0.741014,0.725424,1.250923,0.318283
244,402,41,239,203,0.540724,0.907449,0.627145,0.907449,0.372855,0.741697,0.724294,1.252874,0.320372
245,402,41,238,204,0.538462,0.907449,0.628125,0.907449,0.371875,0.742382,0.723164,1.254832,0.320494
246,402,41,237,205,0.536199,0.907449,0.629108,0.907449,0.370892,0.743068,0.722034,1.256796,0.320877
247,401,42,237,205,0.536199,0.905192,0.628527,0.905192,0.371473,0.741906,0.720904,1.255634,0.321036
248,401,42,236,206,0.533937,0.905192,0.629513,0.905192,0.370487,0.742593,0.719774,1.257606,0.325815
249,401,42,235,207,0.531674,0.905192,0.630503,0.905192,0.369497,0.743281,0.718644,1.259583,0.32605
250,401,42,234,208,0.529412,0.905192,0.631496,0.905192,0.368504,0.74397,0.717514,1.261567,0.326631
251,400,43,234,208,0.529412,0.902935,0.630915,0.902935,0.369085,0.742804,0.716384,1.260405,0.326834
252,399,44,234,208,0.529412,0.900677,0.630332,0.900677,0.369668,0.741636,0.715254,1.259241,0.327426
253,399,44,233,209,0.527149,0.900677,0.631329,0.900677,0.368671,0.742326,0.714124,1.261233,0.328379
254,399,44,232,210,0.524887,0.900677,0.63233,0.900677,0.36767,0.743017,0.712994,1.263232,0.328918
255,398,45,232,210,0.524887,0.89842,0.631746,0.89842,0.368254,0.741845,0.711864,1.262066,0.329104
256,397,46,232,210,0.524887,0.896163,0.631161,0.896163,0.368839,0.740672,0.710734,1.260896,0.329322
257,396,47,232,210,0.524887,0.893905,0.630573,0.893905,0.369427,0.739496,0.709605,1.259723,0.329868
258,396,47,231,211,0.522624,0.893905,0.631579,0.893905,0.368421,0.740187,0.708475,1.261732,0.331009
259,395,48,231,211,0.522624,0.891648,0.63099,0.891648,0.36901,0.739008,0.707345,1.260556,0.331053
260,394,49,231,211,0.522624,0.889391,0.6304,0.889391,0.3696,0.737828,0.706215,1.259377,0.331608
261,394,49,230,212,0.520362,0.889391,0.63141,0.889391,0.36859,0.738519,0.705085,1.261395,0.331635
262,394,49,229,213,0.5181,0.889391,0.632424,0.889391,0.367576,0.739212,0.703955,1.26342,0.33242
263,394,49,228,214,0.515837,0.889391,0.633441,0.889391,0.366559,0.739906,0.702825,1.265451,0.333142
264,393,50,228,214,0.515837,0.887133,0.63285,0.887133,0.36715,0.738722,0.701695,1.264272,0.333486
265,392,51,228,214,0.515837,0.884876,0.632258,0.884876,0.367742,0.737535,0.700565,1.263089,0.333992
266,392,51,227,215,0.513575,0.884876,0.633279,0.884876,0.366721,0.73823,0.699435,1.265129,0.33537
267,392,51,226,216,0.511312,0.884876,0.634304,0.884876,0.365696,0.738926,0.698305,1.267177,0.33585
268,392,51,225,217,0.50905,0.884876,0.635332,0.884876,0.364668,0.739623,0.697175,1.26923,0.337236
269,392,51,224,218,0.506787,0.884876,0.636364,0.884876,0.363636,0.740321,0.696045,1.271291,0.337318
270,392,51,223,219,0.504525,0.884876,0.637398,0.884876,0.362602,0.741021,0.694915,1.273358,0.337465
271,391,52,223,219,0.504525,0.882619,0.636808,0.882619,0.363192,0.73983,0.693785,1.272178,0.337652
272,391,52,222,220,0.502262,0.882619,0.637847,0.882619,0.362153,0.74053,0.692655,1.274253,0.337973
273,391,52,221,221,0.5,0.882619,0.638889,0.882619,0.361111,0.741232,0.691525,1.276336,0.339646
274,391,52,220,222,0.497738,0.882619,0.639935,0.882619,0.360065,0.741935,0.690395,1.278425,0.340242
275,391,52,219,223,0.495475,0.882619,0.640984,0.882619,0.359016,0.74264,0.689266,1.28052,0.341222
276,390,53,219,223,0.495475,0.880361,0.640394,0.880361,0.359606,0.741445,0.688136,1.279343,0.341439
277,390,53,218,224,0.493213,0.880361,0.641447,0.880361,0.358553,0.74215,0.687006,1.281447,0.342587
278,389,54,218,224,0.493213,0.878104,0.640857,0.878104,0.359143,0.740952,0.685876,1.280267,0.344741
279,389,54,217,225,0.49095,0.878104,0.641914,0.878104,0.358086,0.741659,0.684746,1.282379,0.34526
280,388,55,217,225,0.49095,0.875847,0.641322,0.875847,0.358678,0.740458,0.683616,1.281197,0.345391
281,387,56,217,225,0.49095,0.873589,0.640728,0.873589,0.359272,0.739255,0.682486,1.280011,0.346475
282,387,56,216,226,0.488688,0.873589,0.641791,0.873589,0.358209,0.739962,0.681356,1.282133,0.348887
283,387,56,215,227,0.486425,0.873589,0.642857,0.873589,0.357143,0.74067,0.680226,1.284263,0.349169
284,387,56,214,228,0.484163,0.873589,0.643927,0.873589,0.356073,0.741379,0.679096,1.2864,0.352157
285,387,56,213,229,0.4819,0.873589,0.645,0.873589,0.355,0.74209,0.677966,1.288544,0.352774
286,387,56,212,230,0.479638,0.873589,0.646077,0.873589,0.353923,0.742802,0.676836,1.290695,0.354481
287,386,57,212,230,0.479638,0.871332,0.645485,0.871332,0.354515,0.741595,0.675706,1.289513,0.355637
288,385,58,212,230,0.479638,0.869074,0.644891,0.869074,0.355109,0.740385,0.674576,1.288327,0.356546
289,384,59,212,230,0.479638,0.866817,0.644295,0.866817,0.355705,0.739172,0.673446,1.287136,0.357526
290,383,60,212,230,0.479638,0.86456,0.643697,0.86456,0.356303,0.737958,0.672316,1.285942,0.357537
291,382,61,212,230,0.479638,0.862302,0.643098,0.862302,0.356902,0.736741,0.671186,1.284744,0.357774
292,382,61,211,231,0.477376,0.862302,0.644182,0.862302,0.355818,0.737452,0.670056,1.28691,0.359347
293,381,62,211,231,0.477376,0.860045,0.643581,0.860045,0.356419,0.736232,0.668927,1.285709,0.35977
294,381,62,210,232,0.475113,0.860045,0.64467,0.860045,0.35533,0.736944,0.667797,1.287885,0.359851
295,381,62,209,233,0.472851,0.860045,0.645763,0.860045,0.354237,0.737657,0.666667,1.290068,0.360528
296,381,62,208,234,0.470588,0.860045,0.646859,0.860045,0.353141,0.738372,0.665537,1.292258,0.361372
297,381,62,207,235,0.468326,0.860045,0.647959,0.860045,0.352041,0.739088,0.664407,1.294456,0.361421
298,381,62,206,236,0.466063,0.860045,0.649063,0.860045,0.350937,0.739806,0.663277,1.296661,0.362399
299,381,62,205,237,0.463801,0.860045,0.650171,0.860045,0.349829,0.740525,0.662147,1.298874,0.362794
300,381,62,204,238,0.461538,0.860045,0.651282,0.860045,0.348718,0.741245,0.661017,1.301094,0.362794
301,381,62,203,239,0.459276,0.860045,0.652397,0.860045,0.347603,0.741967,0.659887,1.303322,0.36314
302,381,62,202,240,0.457014,0.860045,0.653516,0.860045,0.346484,0.74269,0.658757,1.305557,0.363315
303,381,62,201,241,0.454751,0.860045,0.654639,0.860045,0.345361,0.743415,0.657627,1.307801,0.363692
304,381,62,200,242,0.452489,0.860045,0.655766,0.860045,0.344234,0.744141,0.656497,1.310052,0.364341
305,381,62,199,243,0.450226,0.860045,0.656897,0.860045,0.343103,0.744868,0.655367,1.31231,0.365177
306,381,62,198,244,0.447964,0.860045,0.658031,0.860045,0.341969,0.745597,0.654237,1.314577,0.365716
307,381,62,197,245,0.445701,0.860045,0.65917,0.860045,0.34083,0.746327,0.653107,1.316851,0.366565
308,381,62,196,246,0.443439,0.860045,0.660312,0.860045,0.339688,0.747059,0.651977,1.319133,0.367908
309,381,62,195,247,0.441176,0.860045,0.661458,0.860045,0.338542,0.747792,0.650847,1.321424,0.368213
310,381,62,194,248,0.438914,0.860045,0.662609,0.860045,0.337391,0.748527,0.649718,1.323722,0.368973
311,381,62,193,249,0.436652,0.860045,0.663763,0.860045,0.336237,0.749263,0.648588,1.326028,0.370197
312,381,62,192,250,0.434389,0.860045,0.664921,0.860045,0.335079,0.75,0.647458,1.328342,0.372686
313,381,62,191,251,0.432127,0.860045,0.666084,0.860045,0.333916,0.750739,0.646328,1.330664,0.372726
314,381,62,190,252,0.429864,0.860045,0.66725,0.860045,0.33275,0.751479,0.645198,1.332995,0.373118
315,381,62,189,253,0.427602,0.860045,0.668421,0.860045,0.331579,0.752221,0.644068,1.335333,0.375631
316,381,62,188,254,0.425339,0.860045,0.669596,0.860045,0.330404,0.752964,0.642938,1.33768,0.376147
317,381,62,187,255,0.423077,0.860045,0.670775,0.860045,0.329225,0.753709,0.641808,1.340035,0.377385
318,380,63,187,255,0.423077,0.857788,0.670194,0.857788,0.329806,0.752475,0.640678,1.338875,0.378369
319,380,63,186,256,0.420814,0.857788,0.671378,0.857788,0.328622,0.753221,0.639548,1.341241,0.378965
320,379,64,186,256,0.420814,0.85553,0.670796,0.85553,0.329204,0.751984,0.638418,1.340079,0.380706
321,378,65,186,256,0.420814,0.853273,0.670213,0.853273,0.329787,0.750745,0.637288,1.338913,0.381437
322,378,65,185,257,0.418552,0.853273,0.671403,0.853273,0.328597,0.751491,0.636158,1.341291,0.381442
323,378,65,184,258,0.41629,0.853273,0.672598,0.853273,0.327402,0.752239,0.635028,1.343677,0.382297
324,377,66,184,258,0.41629,0.851016,0.672014,0.851016,0.327986,0.750996,0.633898,1.342512,0.383083
325,377,66,183,259,0.414027,0.851016,0.673214,0.851016,0.326786,0.751745,0.632768,1.344909,0.383097
326,377,66,182,260,0.411765,0.851016,0.674419,0.851016,0.325581,0.752495,0.631638,1.347315,0.383275
327,376,67,182,260,0.411765,0.848758,0.673835,0.848758,0.326165,0.751249,0.630508,1.346149,0.383363
328,375,68,182,260,0.411765,0.846501,0.67325,0.846501,0.32675,0.75,0.629379,1.344979,0.384687
329,375,68,181,261,0.409502,0.846501,0.67446,0.846501,0.32554,0.750751,0.628249,1.347398,0.385263
330,375,68,180,262,0.40724,0.846501,0.675676,0.846501,0.324324,0.751503,0.627119,1.349826,0.385642
331,375,68,179,263,0.404977,0.846501,0.676895,0.846501,0.323105,0.752257,0.625989,1.352263,0.387494
332,375,68,178,264,0.402715,0.846501,0.678119,0.846501,0.321881,0.753012,0.624859,1.354708,0.388168
333,375,68,177,265,0.400452,0.846501,0.679348,0.846501,0.320652,0.753769,0.623729,1.357162,0.389154
334,375,68,176,266,0.39819,0.846501,0.680581,0.846501,0.319419,0.754527,0.622599,1.359625,0.390191
335,375,68,175,267,0.395928,0.846501,0.681818,0.846501,0.318182,0.755287,0.621469,1.362097,0.392173
336,375,68,174,268,0.393665,0.846501,0.68306,0.846501,0.31694,0.756048,0.620339,1.364578,0.392632
337,374,69,174,268,0.393665,0.844244,0.682482,0.844244,0.317518,0.754793,0.619209,1.363423,0.393329
338,374,69,173,269,0.391403,0.844244,0.683729,0.844244,0.316271,0.755556,0.618079,1.365915,0.394578
339,374,69,172,270,0.38914,0.844244,0.684982,0.844244,0.315018,0.75632,0.616949,1.368417,0.396101
340,374,69,171,271,0.386878,0.844244,0.686239,0.844244,0.313761,0.757085,0.615819,1.370928,0.397247
341,374,69,170,272,0.384615,0.844244,0.6875,0.844244,0.3125,0.757852,0.614689,1.373448,0.397418
342,374,69,169,273,0.382353,0.844244,0.688766,0.844244,0.311234,0.758621,0.613559,1.375977,0.398963
343,374,69,168,274,0.38009,0.844244,0.690037,0.844244,0.309963,0.759391,0.612429,1.378516,0.401508
344,374,69,167,275,0.377828,0.844244,0.691312,0.844244,0.308688,0.760163,0.611299,1.381064,0.401529
345,373,70,167,275,0.377828,0.841986,0.690741,0.841986,0.309259,0.758901,0.610169,1.379922,0.401867
346,372,71,167,275,0.377828,0.839729,0.690167,0.839729,0.309833,0.757637,0.60904,1.378776,0.402474
347,372,71,166,276,0.375566,0.839729,0.69145,0.839729,0.30855,0.75841,0.60791,1.381339,0.403076
348,372,71,165,277,0.373303,0.839729,0.692737,0.839729,0.307263,0.759184,0.60678,1.383911,0.403523
349,371,72,165,277,0.373303,0.837472,0.692164,0.837472,0.307836,0.757916,0.60565,1.382766,0.405538
350,371,72,164,278,0.371041,0.837472,0.693458,0.837472,0.306542,0.758691,0.60452,1.385351,0.405963
351,370,73,164,278,0.371041,0.835214,0.692884,0.835214,0.307116,0.757421,0.60339,1.384204,0.407235
352,370,73,163,279,0.368778,0.835214,0.694184,0.835214,0.305816,0.758197,0.60226,1.386801,0.409573
353,370,73,162,280,0.366516,0.835214,0.695489,0.835214,0.304511,0.758974,0.60113,1.389407,0.412137
354,370,73,161,281,0.364253,0.835214,0.696798,0.835214,0.303202,0.759754,0.6,1.392024,0.41231
355,370,73,160,282,0.361991,0.835214,0.698113,0.835214,0.301887,0.760534,0.59887,1.394651,0.413147
356,369,74,160,282,0.361991,0.832957,0.697543,0.832957,0.302457,0.759259,0.59774,1.39351,0.413882
357,369,74,159,283,0.359729,0.832957,0.698864,0.832957,0.301136,0.760041,0.59661,1.39615,0.41449
358,368,75,159,283,0.359729,0.8307,0.698292,0.8307,0.301708,0.758763,0.59548,1.395008,0.414523
359,368,75,158,284,0.357466,0.8307,0.69962,0.8307,0.30038,0.759546,0.59435,1.39766,0.415604
360,368,75,157,285,0.355204,0.8307,0.700952,0.8307,0.299048,0.760331,0.59322,1.400322,0.415921
361,368,75,156,286,0.352941,0.8307,0.70229,0.8307,0.29771,0.761117,0.59209,1.402995,0.416229
362,367,76,156,286,0.352941,0.828442,0.701721,0.828442,0.298279,0.759834,0.59096,1.401858,0.417272
363,367,76,155,287,0.350679,0.828442,0.703065,0.828442,0.296935,0.760622,0.589831,1.404543,0.417292
364,367,76,154,288,0.348416,0.828442,0.704415,0.828442,0.295585,0.761411,0.588701,1.407239,0.418686
365,366,77,154,288,0.348416,0.826185,0.703846,0.826185,0.296154,0.760125,0.587571,1.406103,0.418824
366,366,77,153,289,0.346154,0.826185,0.705202,0.826185,0.294798,0.760915,0.586441,1.408813,0.419328
367,365,78,153,289,0.346154,0.823928,0.704633,0.823928,0.295367,0.759625,0.585311,1.407676,0.41939
368,365,78,152,290,0.343891,0.823928,0.705996,0.823928,0.294004,0.760417,0.584181,1.410399,0.419508
369,364,79,152,290,0.343891,0.82167,0.705426,0.82167,0.294574,0.759124,0.583051,1.40926,0.419519
370,363,80,152,290,0.343891,0.819413,0.704854,0.819413,0.295146,0.757829,0.581921,1.408118,0.420065
371,363,80,151,291,0.341629,0.819413,0.706226,0.819413,0.293774,0.758621,0.580791,1.410857,0.420678
372,363,80,150,292,0.339367,0.819413,0.707602,0.819413,0.292398,0.759414,0.579661,1.413607,0.42121
373,362,81,150,292,0.339367,0.817156,0.707031,0.817156,0.292969,0.758115,0.578531,1.412466,0.421799
374,362,81,149,293,0.337104,0.817156,0.708415,0.817156,0.291585,0.75891,0.577401,1.415231,0.421917
375,361,82,149,293,0.337104,0.814898,0.707843,0.814898,0.292157,0.757608,0.576271,1.414088,0.422411
376,361,82,148,294,0.334842,0.814898,0.709234,0.814898,0.290766,0.758403,0.575141,1.416867,0.423157
377,361,82,147,295,0.332579,0.814898,0.71063,0.814898,0.28937,0.759201,0.574011,1.419656,0.424865
378,360,83,147,295,0.332579,0.812641,0.710059,0.812641,0.289941,0.757895,0.572881,1.418516,0.425082
379,359,84,147,295,0.332579,0.810384,0.709486,0.810384,0.290514,0.756586,0.571751,1.417371,0.425354
380,358,85,147,295,0.332579,0.808126,0.708911,0.808126,0.291089,0.755274,0.570621,1.416222,0.42684
381,357,86,147,295,0.332579,0.805869,0.708333,0.805869,0.291667,0.75396,0.569492,1.415068,0.428182
382,357,86,146,296,0.330317,0.805869,0.709742,0.805869,0.290258,0.754757,0.568362,1.417881,0.428215
383,357,86,145,297,0.328054,0.805869,0.711155,0.805869,0.288845,0.755556,0.567232,1.420705,0.429338
384,357,86,144,298,0.325792,0.805869,0.712575,0.805869,0.287425,0.756356,0.566102,1.423541,0.429703
385,357,86,143,299,0.323529,0.805869,0.714,0.805869,0.286,0.757158,0.564972,1.426388,0.429814
386,356,87,143,299,0.323529,0.803612,0.713427,0.803612,0.286573,0.755839,0.563842,1.425243,0.431002
387,355,88,143,299,0.323529,0.801354,0.712851,0.801354,0.287149,0.754516,0.562712,1.424094,0.431363
388,354,89,143,299,0.323529,0.799097,0.712274,0.799097,0.287726,0.753191,0.561582,1.422939,0.431779
389,353,90,143,299,0.323529,0.79684,0.711694,0.79684,0.288306,0.751864,0.560452,1.421781,0.432473
390,353,90,142,300,0.321267,0.79684,0.713131,0.79684,0.286869,0.752665,0.559322,1.424653,0.434175
391,353,90,141,301,0.319005,0.79684,0.714575,0.79684,0.285425,0.753469,0.558192,1.427537,0.43427
392,352,91,141,301,0.319005,0.794582,0.713996,0.794582,0.286004,0.752137,0.557062,1.42638,0.434826
393,352,91,140,302,0.316742,0.794582,0.715447,0.794582,0.284553,0.752941,0.555932,1.429279,0.435291
394,351,92,140,302,0.316742,0.792325,0.714868,0.792325,0.285132,0.751606,0.554802,1.428122,0.435391
395,350,93,140,302,0.316742,0.790068,0.714286,0.790068,0.285714,0.750268,0.553672,1.426959,0.435868
396,350,93,139,303,0.31448,0.790068,0.715746,0.790068,0.284254,0.751073,0.552542,1.429877,0.436383
397,349,94,139,303,0.31448,0.78781,0.715164,0.78781,0.284836,0.749731,0.551412,1.428714,0.436557
398,349,94,138,304,0.312217,0.78781,0.716632,0.78781,0.283368,0.750538,0.550282,1.431647,0.436786
399,348,95,138,304,0.312217,0.785553,0.716049,0.785553,0.283951,0.749193,0.549153,1.430482,0.436889
400,348,95,137,305,0.309955,0.785553,0.717526,0.785553,0.282474,0.75,0.548023,1.433432,0.437503
401,348,95,136,306,0.307692,0.785553,0.719008,0.785553,0.280992,0.750809,0.546893,1.436393,0.438315
402,347,96,136,306,0.307692,0.783296,0.718427,0.783296,0.281573,0.74946,0.545763,1.435231,0.438785
403,346,97,136,306,0.307692,0.781038,0.717842,0.781038,0.282158,0.748108,0.544633,1.434064,0.439215
404,345,98,136,306,0.307692,0.778781,0.717256,0.778781,0.282744,0.746753,0.543503,1.432892,0.440065
405,344,99,136,306,0.307692,0.776524,0.716667,0.776524,0.283333,0.745395,0.542373,1.431716,0.440102
406,344,99,135,307,0.30543,0.776524,0.718163,0.776524,0.281837,0.746204,0.541243,1.434705,0.443586
407,343,100,135,307,0.30543,0.774266,0.717573,0.774266,0.282427,0.744843,0.540113,1.433527,0.443993
408,342,101,135,307,0.30543,0.772009,0.716981,0.772009,0.283019,0.743478,0.538983,1.432344,0.446717
409,342,101,134,308,0.303167,0.772009,0.718487,0.772009,0.281513,0.744287,0.537853,1.435353,0.44673
410,342,101,133,309,0.300905,0.772009,0.72,0.772009,0.28,0.745098,0.536723,1.438375,0.447279
411,342,101,132,310,0.298643,0.772009,0.721519,0.772009,0.278481,0.745911,0.535593,1.441409,0.447301
412,342,101,131,311,0.29638,0.772009,0.723044,0.772009,0.276956,0.746725,0.534463,1.444457,0.447775
413,342,101,130,312,0.294118,0.772009,0.724576,0.772009,0.275424,0.747541,0.533333,1.447517,0.448193
414,342,101,129,313,0.291855,0.772009,0.726115,0.772009,0.273885,0.748359,0.532203,1.45059,0.449566
415,341,102,129,313,0.291855,0.769752,0.725532,0.769752,0.274468,0.746988,0.531073,1.449426,0.450298
416,341,102,128,314,0.289593,0.769752,0.727079,0.769752,0.272921,0.747807,0.529944,1.452517,0.450733
417,341,102,127,315,0.28733,0.769752,0.728632,0.769752,0.271368,0.748628,0.528814,1.45562,0.451185
418,341,102,126,316,0.285068,0.769752,0.730193,0.769752,0.269807,0.749451,0.527684,1.458737,0.452221
419,341,102,125,317,0.282805,0.769752,0.73176,0.769752,0.26824,0.750275,0.526554,1.461867,0.4548
420,340,103,125,317,0.282805,0.767494,0.731183,0.767494,0.268817,0.748899,0.525424,1.460715,0.455328
421,339,104,125,317,0.282805,0.765237,0.730603,0.765237,0.269397,0.747519,0.524294,1.459558,0.458212
422,339,104,124,318,0.280543,0.765237,0.732181,0.765237,0.267819,0.748344,0.523164,1.46271,0.458476
423,338,105,124,318,0.280543,0.76298,0.731602,0.76298,0.268398,0.746961,0.522034,1.461552,0.461361
424,338,105,123,319,0.278281,0.76298,0.733189,0.76298,0.266811,0.747788,0.520904,1.464722,0.461548
425,338,105,122,320,0.276018,0.76298,0.734783,0.76298,0.265217,0.748616,0.519774,1.467907,0.462005
426,338,105,121,321,0.273756,0.76298,0.736383,0.76298,0.263617,0.749446,0.518644,1.471105,0.462568
427,338,105,120,322,0.271493,0.76298,0.737991,0.76298,0.262009,0.750277,0.517514,1.474317,0.464159
428,337,106,120,322,0.271493,0.760722,0.737418,0.760722,0.262582,0.748889,0.516384,1.473171,0.464371
429,336,107,120,322,0.271493,0.758465,0.736842,0.758465,0.263158,0.747497,0.515254,1.472021,0.46498
430,335,108,120,322,0.271493,0.756208,0.736264,0.756208,0.263736,0.746102,0.514124,1.470865,0.464986
431,334,109,120,322,0.271493,0.75395,0.735683,0.75395,0.264317,0.744705,0.512994,1.469705,0.465512
432,334,109,119,323,0.269231,0.75395,0.737307,0.75395,0.262693,0.745536,0.511864,1.472949,0.465888
433,334,109,118,324,0.266968,0.75395,0.738938,0.75395,0.261062,0.746369,0.510734,1.476208,0.466466
434,334,109,117,325,0.264706,0.75395,0.740576,0.75395,0.259424,0.747204,0.509605,1.479481,0.466607
435,334,109,116,326,0.262443,0.75395,0.742222,0.75395,0.257778,0.74804,0.508475,1.482769,0.46676
436,334,109,115,327,0.260181,0.75395,0.743875,0.75395,0.256125,0.748879,0.507345,1.486071,0.468271
437,333,110,115,327,0.260181,0.751693,0.743304,0.751693,0.256696,0.747475,0.506215,1.484929,0.470565
438,332,111,115,327,0.260181,0.749436,0.742729,0.749436,0.257271,0.746067,0.505085,1.483782,0.470756
439,331,112,115,327,0.260181,0.747178,0.742152,0.747178,0.257848,0.744657,0.503955,1.48263,0.472037
440,331,112,114,328,0.257919,0.747178,0.74382,0.747178,0.25618,0.745495,0.502825,1.485961,0.472513
441,331,112,113,329,0.255656,0.747178,0.745495,0.747178,0.254505,0.746336,0.501695,1.489308,0.47253
442,331,112,112,330,0.253394,0.747178,0.747178,0.747178,0.252822,0.747178,0.500565,1.49267,0.473318
443,331,112,111,331,0.251131,0.747178,0.748869,0.747178,0.251131,0.748023,0.499435,1.496047,0.474168
444,330,113,111,331,0.251131,0.744921,0.748299,0.744921,0.251701,0.746606,0.498305,1.494909,0.474714
445,329,114,111,331,0.251131,0.742664,0.747727,0.742664,0.252273,0.745187,0.497175,1.493767,0.476596
446,328,115,111,331,0.251131,0.740406,0.747153,0.740406,0.252847,0.743764,0.496045,1.492619,0.477792
447,328,115,110,332,0.248869,0.740406,0.748858,0.740406,0.251142,0.744608,0.494915,1.496026,0.479606
448,327,116,110,332,0.248869,0.738149,0.748284,0.738149,0.251716,0.743182,0.493785,1.494878,0.480316
449,326,117,110,332,0.248869,0.735892,0.747706,0.735892,0.252294,0.741752,0.492655,1.493725,0.480708
450,326,117,109,333,0.246606,0.735892,0.749425,0.735892,0.250575,0.742597,0.491525,1.497159,0.48137
451,326,117,108,334,0.244344,0.735892,0.751152,0.735892,0.248848,0.743444,0.490395,1.500609,0.483105
452,325,118,108,334,0.244344,0.733634,0.750577,0.733634,0.249423,0.742009,0.489266,1.49946,0.484063
453,325,118,107,335,0.242081,0.733634,0.752315,0.733634,0.247685,0.742857,0.488136,1.502931,0.484424
454,325,118,106,336,0.239819,0.733634,0.75406,0.733634,0.24594,0.743707,0.487006,1.506418,0.485305
455,324,119,106,336,0.239819,0.731377,0.753488,0.731377,0.246512,0.742268,0.485876,1.505276,0.485351
456,323,120,106,336,0.239819,0.72912,0.752914,0.72912,0.247086,0.740826,0.484746,1.504128,0.485627
457,322,121,106,336,0.239819,0.726862,0.752336,0.726862,0.247664,0.73938,0.483616,1.502975,0.485631
458,322,121,105,337,0.237557,0.726862,0.754098,0.726862,0.245902,0.74023,0.482486,1.506494,0.485671
459,321,122,105,337,0.237557,0.724605,0.753521,0.724605,0.246479,0.73878,0.481356,1.505341,0.486547
460,320,123,105,337,0.237557,0.722348,0.752941,0.722348,0.247059,0.737327,0.480226,1.504183,0.488011
461,319,124,105,337,0.237557,0.72009,0.752358,0.72009,0.247642,0.735871,0.479096,1.503019,0.488761
462,319,124,104,338,0.235294,0.72009,0.754137,0.72009,0.245863,0.736721,0.477966,1.506572,0.490159
463,318,125,104,338,0.235294,0.717833,0.753555,0.717833,0.246445,0.73526,0.476836,1.505408,0.492051
464,318,125,103,339,0.233032,0.717833,0.755344,0.717833,0.244656,0.736111,0.475706,1.508984,0.492179
465,318,125,102,340,0.230769,0.717833,0.757143,0.717833,0.242857,0.736964,0.474576,1.512577,0.492367
466,317,126,102,340,0.230769,0.715576,0.756563,0.715576,0.243437,0.735499,0.473446,1.511419,0.49358
467,316,127,102,340,0.230769,0.713318,0.755981,0.713318,0.244019,0.73403,0.472316,1.510255,0.494426
468,316,127,101,341,0.228507,0.713318,0.757794,0.713318,0.242206,0.734884,0.471186,1.513877,0.494654
469,316,127,100,342,0.226244,0.713318,0.759615,0.713318,0.240385,0.735739,0.470056,1.517516,0.496214
470,315,128,100,342,0.226244,0.711061,0.759036,0.711061,0.240964,0.734266,0.468927,1.516359,0.498277
471,314,129,100,342,0.226244,0.708804,0.758454,0.708804,0.241546,0.732789,0.467797,1.515196,0.498335
472,314,129,99,343,0.223982,0.708804,0.760291,0.708804,0.239709,0.733645,0.466667,1.518865,0.499004
473,314,129,98,344,0.221719,0.708804,0.762136,0.708804,0.237864,0.734503,0.465537,1.522551,0.499316
474,314,129,97,345,0.219457,0.708804,0.76399,0.708804,0.23601,0.735363,0.464407,1.526256,0.499427
475,313,130,97,345,0.219457,0.706546,0.763415,0.706546,0.236585,0.73388,0.463277,1.525106,0.499549
476,313,130,96,346,0.217195,0.706546,0.765281,0.706546,0.234719,0.734742,0.462147,1.528835,0.499702
477,313,130,95,347,0.214932,0.706546,0.767157,0.706546,0.232843,0.735605,0.461017,1.532582,0.501182
478,312,131,95,347,0.214932,0.704289,0.766585,0.704289,0.233415,0.734118,0.459887,1.531439,0.501314
479,312,131,94,348,0.21267,0.704289,0.768473,0.704289,0.231527,0.734982,0.458757,1.535211,0.501402
480,311,132,94,348,0.21267,0.702032,0.767901,0.702032,0.232099,0.733491,0.457627,1.534069,0.501449
481,311,132,93,349,0.210407,0.702032,0.769802,0.702032,0.230198,0.734357,0.456497,1.537866,0.50379
482,311,132,92,350,0.208145,0.702032,0.771712,0.702032,0.228288,0.735225,0.455367,1.541682,0.505637
483,311,132,91,351,0.205882,0.702032,0.773632,0.702032,0.226368,0.736095,0.454237,1.545517,0.505767
484,310,133,91,351,0.205882,0.699774,0.773067,0.699774,0.226933,0.734597,0.453107,1.54439,0.506186
485,310,133,90,352,0.20362,0.699774,0.775,0.699774,0.225,0.735469,0.451977,1.548251,0.507673
486,310,133,89,353,0.201357,0.699774,0.776942,0.699774,0.223058,0.736342,0.450847,1.552131,0.508047
487,310,133,88,354,0.199095,0.699774,0.778894,0.699774,0.221106,0.737218,0.449718,1.556031,0.508391
488,309,134,88,354,0.199095,0.697517,0.778338,0.697517,0.221662,0.735714,0.448588,1.554918,0.509058
489,309,134,87,355,0.196833,0.697517,0.780303,0.697517,0.219697,0.736591,0.447458,1.558845,0.509869
490,309,134,86,356,0.19457,0.697517,0.782278,0.697517,0.217722,0.73747,0.446328,1.562791,0.50993
491,308,135,86,356,0.19457,0.69526,0.781726,0.69526,0.218274,0.735962,0.445198,1.561687,0.510771
492,307,136,86,356,0.19457,0.693002,0.78117,0.693002,0.21883,0.73445,0.444068,1.560578,0.512002
493,306,137,86,356,0.19457,0.690745,0.780612,0.690745,0.219388,0.732934,0.442938,1.559462,0.512109
494,306,137,85,357,0.192308,0.690745,0.782609,0.690745,0.217391,0.733813,0.441808,1.563451,0.513001
495,305,138,85,357,0.192308,0.688488,0.782051,0.688488,0.217949,0.732293,0.440678,1.562337,0.513294
496,305,138,84,358,0.190045,0.688488,0.784062,0.688488,0.215938,0.733173,0.439548,1.566354,0.513369
497,304,139,84,358,0.190045,0.68623,0.783505,0.68623,0.216495,0.731649,0.438418,1.565242,0.514266
498,303,140,84,358,0.190045,0.683973,0.782946,0.683973,0.217054,0.73012,0.437288,1.564124,0.514847
499,303,140,83,359,0.187783,0.683973,0.784974,0.683973,0.215026,0.731001,0.436158,1.568176,0.515077
500,303,140,82,360,0.18552,0.683973,0.787013,0.683973,0.212987,0.731884,0.435028,1.572249,0.51524
501,303,140,81,361,0.183258,0.683973,0.789063,0.683973,0.210938,0.732769,0.433898,1.576344,0.515616
502,302,141,81,361,0.183258,0.681716,0.788512,0.681716,0.211488,0.731235,0.432768,1.575244,0.51744
503,302,141,80,362,0.180995,0.681716,0.790576,0.681716,0.209424,0.732121,0.431638,1.579367,0.519543
504,301,142,80,362,0.180995,0.679458,0.790026,0.679458,0.209974,0.730583,0.430508,1.578269,0.521633
505,301,142,79,363,0.178733,0.679458,0.792105,0.679458,0.207895,0.73147,0.429379,1.582422,0.522495
506,301,142,78,364,0.176471,0.679458,0.794195,0.679458,0.205805,0.73236,0.428249,1.586598,0.522532
507,300,143,78,364,0.176471,0.677201,0.793651,0.677201,0.206349,0.730816,0.427119,1.58551,0.522663
508,299,144,78,364,0.176471,0.674944,0.793103,0.674944,0.206897,0.729268,0.425989,1.584417,0.529281
509,299,144,77,365,0.174208,0.674944,0.795213,0.674944,0.204787,0.730159,0.424859,1.58863,0.530531
510,298,145,77,365,0.174208,0.672686,0.794667,0.672686,0.205333,0.728606,0.423729,1.58754,0.531272
511,297,146,77,365,0.174208,0.670429,0.794118,0.670429,0.205882,0.72705,0.422599,1.586443,0.531404
512,296,147,77,365,0.174208,0.668172,0.793566,0.668172,0.206434,0.72549,0.421469,1.58534,0.53167
513,295,148,77,365,0.174208,0.665914,0.793011,0.665914,0.206989,0.723926,0.420339,1.584231,0.531805
514,294,149,77,365,0.174208,0.663657,0.792453,0.663657,0.207547,0.722359,0.419209,1.583117,0.53195
515,293,150,77,365,0.174208,0.6614,0.791892,0.6614,0.208108,0.720787,0.418079,1.581996,0.532235
516,292,151,77,365,0.174208,0.659142,0.791328,0.659142,0.208672,0.719212,0.416949,1.58087,0.532248
517,291,152,77,365,0.174208,0.656885,0.790761,0.656885,0.209239,0.717633,0.415819,1.579737,0.533228
518,291,152,76,366,0.171946,0.656885,0.792916,0.656885,0.207084,0.718519,0.414689,1.584041,0.534199
519,291,152,75,367,0.169683,0.656885,0.795082,0.656885,0.204918,0.719407,0.413559,1.588369,0.534976
520,291,152,74,368,0.167421,0.656885,0.79726,0.656885,0.20274,0.720297,0.412429,1.592721,0.534999
521,290,153,74,368,0.167421,0.654628,0.796703,0.654628,0.203297,0.718711,0.411299,1.591608,0.535312
522,289,154,74,368,0.167421,0.65237,0.796143,0.65237,0.203857,0.717122,0.410169,1.590489,0.535378
523,288,155,74,368,0.167421,0.650113,0.79558,0.650113,0.20442,0.715528,0.40904,1.589364,0.537184
524,288,155,73,369,0.165158,0.650113,0.797784,0.650113,0.202216,0.716418,0.40791,1.593767,0.538887
525,288,155,72,370,0.162896,0.650113,0.8,0.650113,0.2,0.71731,0.40678,1.598194,0.539037
526,287,156,72,370,0.162896,0.647856,0.799443,0.647856,0.200557,0.715711,0.40565,1.597081,0.540724
527,286,157,72,370,0.162896,0.645598,0.798883,0.645598,0.201117,0.714107,0.40452,1.595962,0.541081
528,285,158,72,370,0.162896,0.643341,0.798319,0.643341,0.201681,0.7125,0.40339,1.594837,0.54166
529,284,159,72,370,0.162896,0.641084,0.797753,0.641084,0.202247,0.710889,0.40226,1.593705,0.545025
530,284,159,71,371,0.160633,0.641084,0.8,0.641084,0.2,0.711779,0.40113,1.598194,0.546052
531,284,159,70,372,0.158371,0.641084,0.80226,0.641084,0.19774,0.712673,0.4,1.602709,0.546872
532,283,160,70,372,0.158371,0.638826,0.8017,0.638826,0.1983,0.711055,0.39887,1.60159,0.546914
533,282,161,70,372,0.158371,0.636569,0.801136,0.636569,0.198864,0.709434,0.39774,1.600464,0.548578
534,281,162,70,372,0.158371,0.634312,0.80057,0.634312,0.19943,0.707809,0.39661,1.599332,0.548929
535,280,163,70,372,0.158371,0.632054,0.8,0.632054,0.2,0.706179,0.39548,1.598194,0.549433
536,279,164,70,372,0.158371,0.629797,0.799427,0.629797,0.200573,0.704545,0.39435,1.597049,0.549454
537,278,165,70,372,0.158371,0.62754,0.798851,0.62754,0.201149,0.702908,0.39322,1.595898,0.552251
538,277,166,70,372,0.158371,0.625282,0.798271,0.625282,0.201729,0.701266,0.39209,1.59474,0.555439
539,276,167,70,372,0.158371,0.623025,0.797688,0.623025,0.202312,0.69962,0.39096,1.593575,0.556675
540,276,167,69,373,0.156109,0.623025,0.8,0.623025,0.2,0.700508,0.389831,1.598194,0.559668
541,275,168,69,373,0.156109,0.620767,0.799419,0.620767,0.200581,0.698856,0.388701,1.597033,0.560953
542,274,169,69,373,0.156109,0.61851,0.798834,0.61851,0.201166,0.697201,0.387571,1.595864,0.561572
543,273,170,69,373,0.156109,0.616253,0.798246,0.616253,0.201754,0.695541,0.386441,1.594689,0.562154
544,272,171,69,373,0.156109,0.613995,0.797654,0.613995,0.202346,0.693878,0.385311,1.593507,0.562301
545,272,171,68,374,0.153846,0.613995,0.8,0.613995,0.2,0.694764,0.384181,1.598194,0.56295
546,271,172,68,374,0.153846,0.611738,0.79941,0.611738,0.20059,0.693095,0.383051,1.597016,0.563076
547,270,173,68,374,0.153846,0.609481,0.798817,0.609481,0.201183,0.691421,0.381921,1.59583,0.563867
548,270,173,67,375,0.151584,0.609481,0.801187,0.609481,0.198813,0.692308,0.380791,1.600565,0.564358
549,269,174,67,375,0.151584,0.607223,0.800595,0.607223,0.199405,0.690629,0.379661,1.599383,0.565251
550,269,174,66,376,0.149321,0.607223,0.802985,0.607223,0.197015,0.691517,0.378531,1.604158,0.566114
551,269,174,65,377,0.147059,0.607223,0.805389,0.607223,0.194611,0.692407,0.377401,1.60896,0.56664
552,268,175,65,377,0.147059,0.604966,0.804805,0.604966,0.195195,0.690722,0.376271,1.607793,0.567708
553,267,176,65,377,0.147059,0.602709,0.804217,0.602709,0.195783,0.689032,0.375141,1.606618,0.5683
554,266,177,65,377,0.147059,0.600451,0.803625,0.600451,0.196375,0.687339,0.374011,1.605437,0.569679
555,265,178,65,377,0.147059,0.598194,0.80303,0.598194,0.19697,0.68564,0.372881,1.604248,0.570036
556,265,178,64,378,0.144796,0.598194,0.805471,0.598194,0.194529,0.686528,0.371751,1.609124,0.570207
557,265,178,63,379,0.142534,0.598194,0.807927,0.598194,0.192073,0.687419,0.370621,1.61403,0.571848
558,264,179,63,379,0.142534,0.595937,0.807339,0.595937,0.192661,0.685714,0.369492,1.612856,0.572174
559,264,179,62,380,0.140271,0.595937,0.809816,0.595937,0.190184,0.686606,0.368362,1.617804,0.572451
560,264,179,61,381,0.138009,0.595937,0.812308,0.595937,0.187692,0.6875,0.367232,1.622782,0.574272
561,263,180,61,381,0.138009,0.593679,0.811728,0.593679,0.188272,0.685789,0.366102,1.621624,0.574872
562,263,180,60,382,0.135747,0.593679,0.814241,0.593679,0.185759,0.686684,0.364972,1.626645,0.575246
563,263,180,59,383,0.133484,0.593679,0.81677,0.593679,0.18323,0.687582,0.363842,1.631697,0.576575
564,262,181,59,383,0.133484,0.591422,0.816199,0.591422,0.183801,0.685864,0.362712,1.630556,0.579703
565,262,181,58,384,0.131222,0.591422,0.81875,0.591422,0.18125,0.686763,0.361582,1.635652,0.579796
566,261,182,58,384,0.131222,0.589165,0.818182,0.589165,0.181818,0.685039,0.360452,1.634517,0.580709
567,261,182,57,385,0.128959,0.589165,0.820755,0.589165,0.179245,0.68594,0.359322,1.639657,0.581538
568,261,182,56,386,0.126697,0.589165,0.823344,0.589165,0.176656,0.686842,0.358192,1.644829,0.582364
569,260,183,56,386,0.126697,0.586907,0.822785,0.586907,0.177215,0.685112,0.357062,1.643712,0.583312
570,260,183,55,387,0.124434,0.586907,0.825397,0.586907,0.174603,0.686016,0.355932,1.64893,0.583314
571,260,183,54,388,0.122172,0.586907,0.828025,0.586907,0.171975,0.686922,0.354802,1.654182,0.584084
572,259,184,54,388,0.122172,0.58465,0.827476,0.58465,0.172524,0.685185,0.353672,1.653084,0.58485
573,259,184,53,389,0.11991,0.58465,0.830128,0.58465,0.169872,0.686093,0.352542,1.658383,0.587921
574,258,185,53,389,0.11991,0.582393,0.829582,0.582393,0.170418,0.68435,0.351412,1.657291,0.587969
575,257,186,53,389,0.11991,0.580135,0.829032,0.580135,0.170968,0.682603,0.350282,1.656193,0.589113
576,256,187,53,389,0.11991,0.577878,0.828479,0.577878,0.171521,0.680851,0.349153,1.655088,0.589712
577,256,187,52,390,0.117647,0.577878,0.831169,0.577878,0.168831,0.681758,0.348023,1.660461,0.591148
578,256,187,51,391,0.115385,0.577878,0.833876,0.577878,0.166124,0.682667,0.346893,1.66587,0.592389
579,255,188,51,391,0.115385,0.575621,0.833333,0.575621,0.166667,0.680908,0.345763,1.664786,0.592664
580,254,189,51,391,0.115385,0.573363,0.832787,0.573363,0.167213,0.679144,0.344633,1.663694,0.594536
581,253,190,51,391,0.115385,0.571106,0.832237,0.571106,0.167763,0.677376,0.343503,1.662595,0.594579
582,253,190,50,392,0.113122,0.571106,0.834983,0.571106,0.165017,0.678284,0.342373,1.668082,0.595887
583,252,191,50,392,0.113122,0.568849,0.834437,0.568849,0.165563,0.67651,0.341243,1.666991,0.595989
584,252,191,49,393,0.11086,0.568849,0.837209,0.568849,0.162791,0.677419,0.340113,1.672529,0.59662
585,251,192,49,393,0.11086,0.566591,0.836667,0.566591,0.163333,0.675639,0.338983,1.671445,0.598634
586,250,193,49,393,0.11086,0.564334,0.83612,0.564334,0.16388,0.673854,0.337853,1.670353,0.600882
587,250,193,48,394,0.108597,0.564334,0.838926,0.564334,0.161074,0.674764,0.336723,1.675959,0.603068
588,249,194,48,394,0.108597,0.562077,0.838384,0.562077,0.161616,0.672973,0.335593,1.674875,0.603109
589,249,194,47,395,0.106335,0.562077,0.841216,0.562077,0.158784,0.673884,0.334463,1.680534,0.604086
590,248,195,47,395,0.106335,0.559819,0.840678,0.559819,0.159322,0.672087,0.333333,1.679458,0.604112
591,247,196,47,395,0.106335,0.557562,0.840136,0.557562,0.159864,0.670285,0.332203,1.678376,0.605728
592,247,196,46,396,0.104072,0.557562,0.843003,0.557562,0.156997,0.671196,0.331073,1.684104,0.606448
593,246,197,46,396,0.104072,0.555305,0.842466,0.555305,0.157534,0.669388,0.329944,1.68303,0.610178
594,246,197,45,397,0.10181,0.555305,0.845361,0.555305,0.154639,0.6703,0.328814,1.688813,0.610965
595,246,197,44,398,0.099548,0.555305,0.848276,0.555305,0.151724,0.671214,0.327684,1.694637,0.611699
596,246,197,43,399,0.097285,0.555305,0.851211,0.555305,0.148789,0.672131,0.326554,1.700501,0.612478
597,246,197,42,400,0.095023,0.555305,0.854167,0.555305,0.145833,0.673051,0.325424,1.706405,0.613316
598,245,198,42,400,0.095023,0.553047,0.853659,0.553047,0.146341,0.671233,0.324294,1.70539,0.61354
599,244,199,42,400,0.095023,0.55079,0.853147,0.55079,0.146853,0.66941,0.323164,1.704368,0.61388
600,243,200,42,400,0.095023,0.548533,0.852632,0.548533,0.147368,0.667582,0.322034,1.703338,0.615957
601,243,200,41,401,0.09276,0.548533,0.855634,0.548533,0.144366,0.668501,0.320904,1.709336,0.61616
602,243,200,40,402,0.090498,0.548533,0.858657,0.548533,0.141343,0.669421,0.319774,1.715376,0.617205
603,242,201,40,402,0.090498,0.546275,0.858156,0.546275,0.141844,0.667586,0.318644,1.714375,0.619309
604,242,201,39,403,0.088235,0.546275,0.86121,0.546275,0.13879,0.668508,0.317514,1.720476,0.620574
605,241,202,39,403,0.088235,0.544018,0.860714,0.544018,0.139286,0.666667,0.316384,1.719486,0.621911
606,241,202,38,404,0.085973,0.544018,0.863799,0.544018,0.136201,0.66759,0.315254,1.725649,0.62213
607,241,202,37,405,0.08371,0.544018,0.866906,0.544018,0.133094,0.668516,0.314124,1.731856,0.623012
608,240,203,37,405,0.08371,0.541761,0.866426,0.541761,0.133574,0.666667,0.312994,1.730896,0.623483
609,240,203,36,406,0.081448,0.541761,0.869565,0.541761,0.130435,0.667594,0.311864,1.737168,0.623706
610,239,204,36,406,0.081448,0.539503,0.869091,0.539503,0.130909,0.665738,0.310734,1.73622,0.624028
611,239,204,35,407,0.079186,0.539503,0.872263,0.539503,0.127737,0.666667,0.309605,1.742557,0.62552
612,238,205,35,407,0.079186,0.537246,0.871795,0.537246,0.128205,0.664804,0.308475,1.741622,0.629946
613,237,206,35,407,0.079186,0.534989,0.871324,0.534989,0.128676,0.662937,0.307345,1.74068,0.630692
614,236,207,35,407,0.079186,0.532731,0.870849,0.532731,0.129151,0.661064,0.306215,1.739732,0.631075
615,235,208,35,407,0.079186,0.530474,0.87037,0.530474,0.12963,0.659187,0.305085,1.738776,0.631592
616,234,209,35,407,0.079186,0.528217,0.869888,0.528217,0.130112,0.657303,0.303955,1.737813,0.632856
617,233,210,35,407,0.079186,0.525959,0.869403,0.525959,0.130597,0.655415,0.302825,1.736843,0.633114
618,232,211,35,407,0.079186,0.523702,0.868914,0.523702,0.131086,0.653521,0.301695,1.735866,0.633953
619,231,212,35,407,0.079186,0.521445,0.868421,0.521445,0.131579,0.651622,0.300565,1.734882,0.635008
620,230,213,35,407,0.079186,0.519187,0.867925,0.519187,0.132075,0.649718,0.299435,1.73389,0.637582
621,229,214,35,407,0.079186,0.51693,0.867424,0.51693,0.132576,0.647808,0.298305,1.73289,0.638635
622,228,215,35,407,0.079186,0.514673,0.86692,0.514673,0.13308,0.645892,0.297175,1.731883,0.641727
623,227,216,35,407,0.079186,0.512415,0.866412,0.512415,0.133588,0.643972,0.296045,1.730869,0.64657
624,226,217,35,407,0.079186,0.510158,0.8659,0.510158,0.1341,0.642045,0.294915,1.729846,0.647262
625,225,218,35,407,0.079186,0.507901,0.865385,0.507901,0.134615,0.640114,0.293785,1.728816,0.649108
626,224,219,35,407,0.079186,0.505643,0.864865,0.505643,0.135135,0.638177,0.292655,1.727777,0.649453
627,223,220,35,407,0.079186,0.503386,0.864341,0.503386,0.135659,0.636234,0.291525,1.726731,0.649867
628,222,221,35,407,0.079186,0.501129,0.863813,0.501129,0.136187,0.634286,0.290395,1.725677,0.651029
629,221,222,35,407,0.079186,0.498871,0.863281,0.498871,0.136719,0.632332,0.289266,1.724614,0.651513
630,220,223,35,407,0.079186,0.496614,0.862745,0.496614,0.137255,0.630372,0.288136,1.723543,0.651701
631,219,224,35,407,0.079186,0.494357,0.862205,0.494357,0.137795,0.628407,0.287006,1.722463,0.651852
632,219,224,34,408,0.076923,0.494357,0.865613,0.494357,0.134387,0.62931,0.285876,1.729271,0.651944
633,218,225,34,408,0.076923,0.492099,0.865079,0.492099,0.134921,0.627338,0.284746,1.728206,0.656229
634,218,225,33,409,0.074661,0.492099,0.868526,0.492099,0.131474,0.628242,0.283616,1.735091,0.656459
635,217,226,33,409,0.074661,0.489842,0.868,0.489842,0.132,0.626263,0.282486,1.734041,0.657326
636,216,227,33,409,0.074661,0.487585,0.86747,0.487585,0.13253,0.624277,0.281356,1.732982,0.657908
637,215,228,33,409,0.074661,0.485327,0.866935,0.485327,0.133065,0.622287,0.280226,1.731914,0.659139
638,215,228,32,410,0.072398,0.485327,0.870445,0.485327,0.129555,0.623188,0.279096,1.738926,0.65948
639,214,229,32,410,0.072398,0.48307,0.869919,0.48307,0.130081,0.62119,0.277966,1.737874,0.659925
640,214,229,31,411,0.070136,0.48307,0.873469,0.48307,0.126531,0.622093,0.276836,1.744967,0.659945
641,214,229,30,412,0.067873,0.48307,0.877049,0.48307,0.122951,0.622999,0.275706,1.752119,0.660362
642,213,230,30,412,0.067873,0.480813,0.876543,0.480813,0.123457,0.620991,0.274576,1.751108,0.660649
643,212,231,30,412,0.067873,0.478555,0.876033,0.478555,0.123967,0.618978,0.273446,1.750089,0.661548
644,211,232,30,412,0.067873,0.476298,0.875519,0.476298,0.124481,0.616959,0.272316,1.749061,0.662146
645,211,232,29,413,0.065611,0.476298,0.879167,0.476298,0.120833,0.617862,0.271186,1.756349,0.662419
646,211,232,28,414,0.063348,0.476298,0.882845,0.476298,0.117155,0.618768,0.270056,1.763697,0.662586
647,210,233,28,414,0.063348,0.474041,0.882353,0.474041,0.117647,0.61674,0.268927,1.762714,0.66272
648,209,234,28,414,0.063348,0.471783,0.881857,0.471783,0.118143,0.614706,0.267797,1.761722,0.66486
649,208,235,28,414,0.063348,0.469526,0.881356,0.469526,0.118644,0.612666,0.266667,1.760722,0.666218
650,207,236,28,414,0.063348,0.467269,0.880851,0.467269,0.119149,0.610619,0.265537,1.759714,0.670702
651,206,237,28,414,0.063348,0.465011,0.880342,0.465011,0.119658,0.608567,0.264407,1.758697,0.671494
652,205,238,28,414,0.063348,0.462754,0.879828,0.462754,0.120172,0.606509,0.263277,1.757671,0.673333
653,204,239,28,414,0.063348,0.460497,0.87931,0.460497,0.12069,0.604444,0.262147,1.756636,0.674501
654,203,240,28,414,0.063348,0.458239,0.878788,0.458239,0.121212,0.602374,0.261017,1.755592,0.675564
655,202,241,28,414,0.063348,0.455982,0.878261,0.455982,0.121739,0.600297,0.259887,1.754539,0.675683
656,202,241,27,415,0.061086,0.455982,0.882096,0.455982,0.117904,0.60119,0.258757,1.762201,0.67792
657,201,242,27,415,0.061086,0.453725,0.881579,0.453725,0.118421,0.599106,0.257627,1.761168,0.679596
658,200,243,27,415,0.061086,0.451467,0.881057,0.451467,0.118943,0.597015,0.256497,1.760126,0.679704
659,199,244,27,415,0.061086,0.44921,0.880531,0.44921,0.119469,0.594918,0.255367,1.759074,0.682024
660,199,244,26,416,0.058824,0.44921,0.884444,0.44921,0.115556,0.595808,0.254237,1.766892,0.682767
661,198,245,26,416,0.058824,0.446953,0.883929,0.446953,0.116071,0.593703,0.253107,1.765862,0.685126
662,198,245,25,417,0.056561,0.446953,0.887892,0.446953,0.112108,0.594595,0.251977,1.77378,0.685221
663,197,246,25,417,0.056561,0.444695,0.887387,0.444695,0.112613,0.592481,0.250847,1.772772,0.685568
664,196,247,25,417,0.056561,0.442438,0.886878,0.442438,0.113122,0.590361,0.249718,1.771754,0.685794
665,196,247,24,418,0.054299,0.442438,0.890909,0.442438,0.109091,0.591252,0.248588,1.779807,0.68707
666,195,248,24,418,0.054299,0.440181,0.890411,0.440181,0.109589,0.589124,0.247458,1.778812,0.68736
667,194,249,24,418,0.054299,0.437923,0.889908,0.437923,0.110092,0.586989,0.246328,1.777808,0.687793
668,194,249,23,419,0.052036,0.437923,0.894009,0.437923,0.105991,0.587879,0.245198,1.786,0.687932
669,193,250,23,419,0.052036,0.435666,0.893519,0.435666,0.106481,0.585736,0.244068,1.78502,0.689004
670,192,251,23,419,0.052036,0.433409,0.893023,0.433409,0.106977,0.583587,0.242938,1.784031,0.689644
671,191,252,23,419,0.052036,0.431151,0.892523,0.431151,0.107477,0.581431,0.241808,1.783032,0.689969
672,190,253,23,419,0.052036,0.428894,0.892019,0.428894,0.107981,0.579268,0.240678,1.782024,0.690244
673,190,253,22,420,0.049774,0.428894,0.896226,0.428894,0.103774,0.580153,0.239548,1.79043,0.691356
674,189,254,22,420,0.049774,0.426637,0.895735,0.426637,0.104265,0.577982,0.238418,1.789447,0.691932
675,188,255,22,420,0.049774,0.424379,0.895238,0.424379,0.104762,0.575804,0.237288,1.788455,0.693389
676,187,256,22,420,0.049774,0.422122,0.894737,0.422122,0.105263,0.57362,0.236158,1.787454,0.693968
677,186,257,22,420,0.049774,0.419865,0.894231,0.419865,0.105769,0.571429,0.235028,1.786443,0.694244
678,185,258,22,420,0.049774,0.417607,0.89372,0.417607,0.10628,0.569231,0.233898,1.785422,0.695085
679,184,259,22,420,0.049774,0.41535,0.893204,0.41535,0.106796,0.567026,0.232768,1.784392,0.696247
680,183,260,22,420,0.049774,0.413093,0.892683,0.413093,0.107317,0.564815,0.231638,1.783351,0.696899
681,182,261,22,420,0.049774,0.410835,0.892157,0.410835,0.107843,0.562597,0.230508,1.7823,0.697573
682,182,261,21,421,0.047511,0.410835,0.896552,0.410835,0.103448,0.563467,0.229379,1.79108,0.700063
683,181,262,21,421,0.047511,0.408578,0.89604,0.408578,0.10396,0.56124,0.228249,1.790057,0.701021
684,180,263,21,421,0.047511,0.406321,0.895522,0.406321,0.104478,0.559006,0.227119,1.789023,0.70133
685,179,264,21,421,0.047511,0.404063,0.895,0.404063,0.105,0.556765,0.225989,1.78798,0.702637
686,178,265,21,421,0.047511,0.401806,0.894472,0.401806,0.105528,0.554517,0.224859,1.786926,0.705808
687,177,266,21,421,0.047511,0.399549,0.893939,0.399549,0.106061,0.552262,0.223729,1.785861,0.707813
688,177,266,20,422,0.045249,0.399549,0.898477,0.399549,0.101523,0.553125,0.222599,1.794926,0.707918
689,176,267,20,422,0.045249,0.397291,0.897959,0.397291,0.102041,0.550861,0.221469,1.793891,0.708232
690,175,268,20,422,0.045249,0.395034,0.897436,0.395034,0.102564,0.548589,0.220339,1.792846,0.708607
691,174,269,20,422,0.045249,0.392777,0.896907,0.392777,0.103093,0.546311,0.219209,1.79179,0.709822
692,173,270,20,422,0.045249,0.390519,0.896373,0.390519,0.103627,0.544025,0.218079,1.790723,0.710775
693,172,271,20,422,0.045249,0.388262,0.895833,0.388262,0.104167,0.541732,0.216949,1.789644,0.717782
694,171,272,20,422,0.045249,0.386005,0.895288,0.386005,0.104712,0.539432,0.215819,1.788555,0.719805
695,171,272,19,423,0.042986,0.386005,0.9,0.386005,0.1,0.540284,0.214689,1.797968,0.726246
696,170,273,19,423,0.042986,0.383747,0.899471,0.383747,0.100529,0.537975,0.213559,1.796911,0.726955
697,169,274,19,423,0.042986,0.38149,0.898936,0.38149,0.101064,0.535658,0.212429,1.795843,0.727916
698,169,274,18,424,0.040724,0.38149,0.903743,0.38149,0.096257,0.536508,0.211299,1.805447,0.728288
699,168,275,18,424,0.040724,0.379233,0.903226,0.379233,0.096774,0.534181,0.210169,1.804413,0.729103
700,168,275,17,425,0.038462,0.379233,0.908108,0.379233,0.091892,0.535032,0.20904,1.814166,0.729671
701,167,276,17,425,0.038462,0.376975,0.907609,0.376975,0.092391,0.532695,0.20791,1.813169,0.729782
702,166,277,17,425,0.038462,0.374718,0.907104,0.374718,0.092896,0.530351,0.20678,1.81216,0.737028
703,165,278,17,425,0.038462,0.37246,0.906593,0.37246,0.093407,0.528,0.20565,1.81114,0.737396
704,164,279,17,425,0.038462,0.370203,0.906077,0.370203,0.093923,0.525641,0.20452,1.810109,0.740347
705,163,280,17,425,0.038462,0.367946,0.905556,0.367946,0.094444,0.523274,0.20339,1.809067,0.741431
706,162,281,17,425,0.038462,0.365688,0.905028,0.365688,0.094972,0.5209,0.20226,1.808013,0.742401
707,161,282,17,425,0.038462,0.363431,0.904494,0.363431,0.095506,0.518519,0.20113,1.806947,0.74771
708,161,282,16,426,0.036199,0.363431,0.909605,0.363431,0.090395,0.519355,0.2,1.817156,0.749184
709,160,283,16,426,0.036199,0.361174,0.909091,0.361174,0.090909,0.516963,0.19887,1.81613,0.749253
710,160,283,15,427,0.033937,0.361174,0.914286,0.361174,0.085714,0.517799,0.19774,1.826508,0.750965
711,159,284,15,427,0.033937,0.358916,0.913793,0.358916,0.086207,0.515397,0.19661,1.825523,0.753354
712,158,285,15,427,0.033937,0.356659,0.913295,0.356659,0.086705,0.512987,0.19548,1.824528,0.754694
713,157,286,15,427,0.033937,0.354402,0.912791,0.354402,0.087209,0.510569,0.19435,1.823521,0.755758
714,156,287,15,427,0.033937,0.352144,0.912281,0.352144,0.087719,0.508143,0.19322,1.822502,0.758834
715,156,287,14,428,0.031674,0.352144,0.917647,0.352144,0.082353,0.508972,0.19209,1.833223,0.759553
716,155,288,14,428,0.031674,0.349887,0.91716,0.349887,0.08284,0.506536,0.19096,1.832249,0.760048
717,154,289,14,428,0.031674,0.34763,0.916667,0.34763,0.083333,0.504092,0.189831,1.831264,0.762035
718,153,290,14,428,0.031674,0.345372,0.916168,0.345372,0.083832,0.501639,0.188701,1.830267,0.762234
719,152,291,14,428,0.031674,0.343115,0.915663,0.343115,0.084337,0.499179,0.187571,1.829258,0.762467
720,151,292,14,428,0.031674,0.340858,0.915152,0.340858,0.084848,0.496711,0.186441,1.828237,0.764272
721,150,293,14,428,0.031674,0.3386,0.914634,0.3386,0.085366,0.494234,0.185311,1.827204,0.765323
722,149,294,14,428,0.031674,0.336343,0.91411,0.336343,0.08589,0.491749,0.184181,1.826157,0.765611
723,148,295,14,428,0.031674,0.334086,0.91358,0.334086,0.08642,0.489256,0.183051,1.825098,0.76564
724,147,296,14,428,0.031674,0.331828,0.913043,0.331828,0.086957,0.486755,0.181921,1.824026,0.7697
725,147,296,13,429,0.029412,0.331828,0.91875,0.331828,0.08125,0.487562,0.180791,1.835426,0.771291
726,146,297,13,429,0.029412,0.329571,0.918239,0.329571,0.081761,0.48505,0.179661,1.834405,0.77753
727,146,297,12,430,0.027149,0.329571,0.924051,0.329571,0.075949,0.485857,0.178531,1.846015,0.78093
728,145,298,12,430,0.027149,0.327314,0.923567,0.327314,0.076433,0.483333,0.177401,1.845049,0.781439
729,144,299,12,430,0.027149,0.325056,0.923077,0.325056,0.076923,0.480801,0.176271,1.84407,0.786716
730,144,299,11,431,0.024887,0.325056,0.929032,0.325056,0.070968,0.481605,0.175141,1.855967,0.78698
731,143,300,11,431,0.024887,0.322799,0.928571,0.322799,0.071429,0.479062,0.174011,1.855047,0.788587
732,142,301,11,431,0.024887,0.320542,0.928105,0.320542,0.071895,0.47651,0.172881,1.854114,0.790681
733,142,301,10,432,0.022624,0.320542,0.934211,0.320542,0.065789,0.477311,0.171751,1.866312,0.792129
734,141,302,10,432,0.022624,0.318284,0.933775,0.318284,0.066225,0.474747,0.170621,1.865442,0.794915
735,140,303,10,432,0.022624,0.316027,0.933333,0.316027,0.066667,0.472175,0.169492,1.86456,0.795292
736,139,304,10,432,0.022624,0.31377,0.932886,0.31377,0.067114,0.469595,0.168362,1.863666,0.797426
737,138,305,10,432,0.022624,0.311512,0.932432,0.311512,0.067568,0.467005,0.167232,1.86276,0.800694
738,137,306,10,432,0.022624,0.309255,0.931973,0.309255,0.068027,0.464407,0.166102,1.861842,0.804818
739,137,306,9,433,0.020362,0.309255,0.938356,0.309255,0.061644,0.465195,0.164972,1.874594,0.804912
740,136,307,9,433,0.020362,0.306998,0.937931,0.306998,0.062069,0.462585,0.163842,1.873745,0.804987
741,136,307,8,434,0.0181,0.306998,0.944444,0.306998,0.055556,0.463373,0.162712,1.886757,0.806
742,135,308,8,434,0.0181,0.30474,0.944056,0.30474,0.055944,0.460751,0.161582,1.885981,0.807893
743,134,309,8,434,0.0181,0.302483,0.943662,0.302483,0.056338,0.45812,0.160452,1.885194,0.814014
744,133,310,8,434,0.0181,0.300226,0.943262,0.300226,0.056738,0.455479,0.159322,1.884396,0.817242
745,132,311,8,434,0.0181,0.297968,0.942857,0.297968,0.057143,0.45283,0.158192,1.883586,0.819504
746,131,312,8,434,0.0181,0.295711,0.942446,0.295711,0.057554,0.450172,0.157062,1.882765,0.820646
747,130,313,8,434,0.0181,0.293454,0.942029,0.293454,0.057971,0.447504,0.155932,1.881931,0.822593
748,129,314,8,434,0.0181,0.291196,0.941606,0.291196,0.058394,0.444828,0.154802,1.881086,0.823159
749,129,314,7,435,0.015837,0.291196,0.948529,0.291196,0.051471,0.445596,0.153672,1.894918,0.824398
750,128,315,7,435,0.015837,0.288939,0.948148,0.288939,0.051852,0.442907,0.152542,1.894156,0.825938
751,127,316,7,435,0.015837,0.286682,0.947761,0.286682,0.052239,0.440208,0.151412,1.893383,0.827146
752,126,317,7,435,0.015837,0.284424,0.947368,0.284424,0.052632,0.4375,0.150282,1.892598,0.828643
753,125,318,7,435,0.015837,0.282167,0.94697,0.282167,0.05303,0.434783,0.149153,1.891802,0.832492
754,124,319,7,435,0.015837,0.27991,0.946565,0.27991,0.053435,0.432056,0.148023,1.890993,0.833951
755,124,319,6,436,0.013575,0.27991,0.953846,0.27991,0.046154,0.43281,0.146893,1.905539,0.836182
756,123,320,6,436,0.013575,0.277652,0.953488,0.277652,0.046512,0.43007,0.145763,1.904824,0.839903
757,122,321,6,436,0.013575,0.275395,0.953125,0.275395,0.046875,0.42732,0.144633,1.904098,0.84448
758,121,322,6,436,0.013575,0.273138,0.952756,0.273138,0.047244,0.424561,0.143503,1.903361,0.844616
759,121,322,5,437,0.011312,0.273138,0.960317,0.273138,0.039683,0.425308,0.142373,1.918467,0.844643
760,120,323,5,437,0.011312,0.27088,0.96,0.27088,0.04,0.422535,0.141243,1.917833,0.84558
761,119,324,5,437,0.011312,0.268623,0.959677,0.268623,0.040323,0.419753,0.140113,1.917189,0.84564
762,118,325,5,437,0.011312,0.266366,0.95935,0.266366,0.04065,0.416961,0.138983,1.916534,0.849942
763,117,326,5,437,0.011312,0.264108,0.959016,0.264108,0.040984,0.414159,0.137853,1.915868,0.855659
764,116,327,5,437,0.011312,0.261851,0.958678,0.261851,0.041322,0.411348,0.136723,1.915191,0.856651
765,115,328,5,437,0.011312,0.259594,0.958333,0.259594,0.041667,0.408526,0.135593,1.914503,0.856889
766,115,328,4,438,0.00905,0.259594,0.966387,0.259594,0.033613,0.409253,0.134463,1.930592,0.858216
767,114,329,4,438,0.00905,0.257336,0.966102,0.257336,0.033898,0.406417,0.133333,1.930023,0.858477
768,113,330,4,438,0.00905,0.255079,0.965812,0.255079,0.034188,0.403571,0.132203,1.929444,0.859219
769,112,331,4,438,0.00905,0.252822,0.965517,0.252822,0.034483,0.400716,0.131073,1.928855,0.862331
770,111,332,4,438,0.00905,0.250564,0.965217,0.250564,0.034783,0.397849,0.129944,1.928256,0.862673
771,110,333,4,438,0.00905,0.248307,0.964912,0.248307,0.035088,0.394973,0.128814,1.927646,0.863747
772,109,334,4,438,0.00905,0.24605,0.964602,0.24605,0.035398,0.392086,0.127684,1.927026,0.869747
773,108,335,4,438,0.00905,0.243792,0.964286,0.243792,0.035714,0.389189,0.126554,1.926395,0.873634
774,107,336,4,438,0.00905,0.241535,0.963964,0.241535,0.036036,0.386282,0.125424,1.925752,0.874038
775,106,337,4,438,0.00905,0.239278,0.963636,0.239278,0.036364,0.383363,0.124294,1.925097,0.87747
776,105,338,4,438,0.00905,0.23702,0.963303,0.23702,0.036697,0.380435,0.123164,1.924431,0.877597
777,105,338,3,439,0.006787,0.23702,0.972222,0.23702,0.027778,0.381125,0.122034,1.94225,0.877748
778,104,339,3,439,0.006787,0.234763,0.971963,0.234763,0.028037,0.378182,0.120904,1.941731,0.877999
779,103,340,3,439,0.006787,0.232506,0.971698,0.232506,0.028302,0.375228,0.119774,1.941203,0.880044
780,102,341,3,439,0.006787,0.230248,0.971429,0.230248,0.028571,0.372263,0.118644,1.940664,0.880617
781,101,342,3,439,0.006787,0.227991,0.971154,0.227991,0.028846,0.369287,0.117514,1.940115,0.881493
782,100,343,3,439,0.006787,0.225734,0.970874,0.225734,0.029126,0.3663,0.116384,1.939556,0.882581
783,99,344,3,439,0.006787,0.223476,0.970588,0.223476,0.029412,0.363303,0.115254,1.938986,0.882896
784,98,345,3,439,0.006787,0.221219,0.970297,0.221219,0.029703,0.360294,0.114124,1.938404,0.883186
785,97,346,3,439,0.006787,0.218962,0.97,0.218962,0.03,0.357274,0.112994,1.93781,0.883298
786,96,347,3,439,0.006787,0.216704,0.969697,0.216704,0.030303,0.354244,0.111864,1.937205,0.885366
787,96,347,2,440,0.004525,0.216704,0.979592,0.216704,0.020408,0.354898,0.110734,1.956972,0.8881
788,95,348,2,440,0.004525,0.214447,0.979381,0.214447,0.020619,0.351852,0.109605,1.956552,0.889157
789,94,349,2,440,0.004525,0.21219,0.979167,0.21219,0.020833,0.348794,0.108475,1.956123,0.890797
790,93,350,2,440,0.004525,0.209932,0.978947,0.209932,0.021053,0.345725,0.107345,1.955685,0.891279
791,92,351,2,440,0.004525,0.207675,0.978723,0.207675,0.021277,0.342644,0.106215,1.955238,0.892143
792,91,352,2,440,0.004525,0.205418,0.978495,0.205418,0.021505,0.339552,0.105085,1.95478,0.894651
793,90,353,2,440,0.004525,0.20316,0.978261,0.20316,0.021739,0.336449,0.103955,1.954313,0.894783
794,89,354,2,440,0.004525,0.200903,0.978022,0.200903,0.021978,0.333333,0.102825,1.953836,0.895334
795,88,355,2,440,0.004525,0.198646,0.977778,0.198646,0.022222,0.330206,0.101695,1.953348,0.896129
796,87,356,2,440,0.004525,0.196388,0.977528,0.196388,0.022472,0.327068,0.100565,1.95285,0.899168
797,86,357,2,440,0.004525,0.194131,0.977273,0.194131,0.022727,0.323917,0.099435,1.952339,0.899509
798,85,358,2,440,0.004525,0.191874,0.977011,0.191874,0.022989,0.320755,0.098305,1.951818,0.901311
799,84,359,2,440,0.004525,0.189616,0.976744,0.189616,0.023256,0.31758,0.097175,1.951284,0.902121
800,84,359,1,441,0.002262,0.189616,0.988235,0.189616,0.011765,0.318182,0.096045,1.97424,0.902493
801,83,360,1,441,0.002262,0.187359,0.988095,0.187359,0.011905,0.314991,0.094915,1.97396,0.903405
802,82,361,1,441,0.002262,0.185102,0.987952,0.185102,0.012048,0.311787,0.093785,1.973673,0.904734
803,82,361,0,442,0,0.185102,1,0.185102,0,0.312381,0.092655,1.997743,0.907417
804,81,362,0,442,0,0.182844,1,0.182844,0,0.30916,0.091525,1.997743,0.907762
805,80,363,0,442,0,0.180587,1,0.180587,0,0.305927,0.090395,1.997743,0.908282
806,79,364,0,442,0,0.17833,1,0.17833,0,0.302682,0.089266,1.997743,0.912099
807,78,365,0,442,0,0.176072,1,0.176072,0,0.299424,0.088136,1.997743,0.912775
808,77,366,0,442,0,0.173815,1,0.173815,0,0.296154,0.087006,1.997743,0.91299
809,76,367,0,442,0,0.171558,1,0.171558,0,0.292871,0.085876,1.997743,0.914879
810,75,368,0,442,0,0.1693,1,0.1693,0,0.289575,0.084746,1.997743,0.917132
811,74,369,0,442,0,0.167043,1,0.167043,0,0.286267,0.083616,1.997743,0.917828
812,73,370,0,442,0,0.164786,1,0.164786,0,0.282946,0.082486,1.997743,0.918712
813,72,371,0,442,0,0.162528,1,0.162528,0,0.279612,0.081356,1.997743,0.918926
814,71,372,0,442,0,0.160271,1,0.160271,0,0.276265,0.080226,1.997743,0.921205
815,70,373,0,442,0,0.158014,1,0.158014,0,0.272904,0.079096,1.997743,0.922087
816,69,374,0,442,0,0.155756,1,0.155756,0,0.269531,0.077966,1.997743,0.922665
817,68,375,0,442,0,0.153499,1,0.153499,0,0.266145,0.076836,1.997743,0.926777
818,67,376,0,442,0,0.151242,1,0.151242,0,0.262745,0.075706,1.997743,0.927633
819,66,377,0,442,0,0.148984,1,0.148984,0,0.259332,0.074576,1.997743,0.929955
820,65,378,0,442,0,0.146727,1,0.146727,0,0.255906,0.073446,1.997743,0.931953
821,64,379,0,442,0,0.14447,1,0.14447,0,0.252465,0.072316,1.997743,0.933242
822,63,380,0,442,0,0.142212,1,0.142212,0,0.249012,0.071186,1.997743,0.934201
823,62,381,0,442,0,0.139955,1,0.139955,0,0.245545,0.070056,1.997743,0.936267
824,61,382,0,442,0,0.137698,1,0.137698,0,0.242063,0.068927,1.997743,0.936369
825,60,383,0,442,0,0.13544,1,0.13544,0,0.238569,0.067797,1.997743,0.93643
826,59,384,0,442,0,0.133183,1,0.133183,0,0.23506,0.066667,1.997743,0.936896
827,58,385,0,442,0,0.130926,1,0.130926,0,0.231537,0.065537,1.997743,0.93745
828,57,386,0,442,0,0.128668,1,0.128668,0,0.228,0.064407,1.997743,0.937764
829,56,387,0,442,0,0.126411,1,0.126411,0,0.224449,0.063277,1.997743,0.94076
830,55,388,0,442,0,0.124153,1,0.124153,0,0.220884,0.062147,1.997743,0.94157
831,54,389,0,442,0,0.121896,1,0.121896,0,0.217304,0.061017,1.997743,0.943774
832,53,390,0,442,0,0.119639,1,0.119639,0,0.21371,0.059887,1.997743,0.945195
833,52,391,0,442,0,0.117381,1,0.117381,0,0.210101,0.058757,1.997743,0.946183
834,51,392,0,442,0,0.115124,1,0.115124,0,0.206478,0.057627,1.997743,0.94705
835,50,393,0,442,0,0.112867,1,0.112867,0,0.20284,0.056497,1.997743,0.94811
836,49,394,0,442,0,0.110609,1,0.110609,0,0.199187,0.055367,1.997743,0.949605
837,48,395,0,442,0,0.108352,1,0.108352,0,0.195519,0.054237,1.997743,0.952154
838,47,396,0,442,0,0.106095,1,0.106095,0,0.191837,0.053107,1.997743,0.952553
839,46,397,0,442,0,0.103837,1,0.103837,0,0.188139,0.051977,1.997743,0.952616
840,45,398,0,442,0,0.10158,1,0.10158,0,0.184426,0.050847,1.997743,0.953235
841,44,399,0,442,0,0.099323,1,0.099323,0,0.180698,0.049718,1.997743,0.953407
842,43,400,0,442,0,0.097065,1,0.097065,0,0.176955,0.048588,1.997743,0.954671
843,42,401,0,442,0,0.094808,1,0.094808,0,0.173196,0.047458,1.997743,0.954754
844,41,402,0,442,0,0.092551,1,0.092551,0,0.169421,0.046328,1.997743,0.955817
845,40,403,0,442,0,0.090293,1,0.090293,0,0.165631,0.045198,1.997743,0.956723
846,39,404,0,442,0,0.088036,1,0.088036,0,0.161826,0.044068,1.997743,0.957718
847,38,405,0,442,0,0.085779,1,0.085779,0,0.158004,0.042938,1.997743,0.957766
848,37,406,0,442,0,0.083521,1,0.083521,0,0.154167,0.041808,1.997743,0.95815
849,36,407,0,442,0,0.081264,1,0.081264,0,0.150313,0.040678,1.997743,0.959936
850,35,408,0,442,0,0.079007,1,0.079007,0,0.146444,0.039548,1.997743,0.960002
851,34,409,0,442,0,0.076749,1,0.076749,0,0.142558,0.038418,1.997743,0.963186
852,33,410,0,442,0,0.074492,1,0.074492,0,0.138655,0.037288,1.997743,0.965001
853,32,411,0,442,0,0.072235,1,0.072235,0,0.134737,0.036158,1.997743,0.965817
854,31,412,0,442,0,0.069977,1,0.069977,0,0.130802,0.035028,1.997743,0.966373
855,30,413,0,442,0,0.06772,1,0.06772,0,0.12685,0.033898,1.997743,0.971322
856,29,414,0,442,0,0.065463,1,0.065463,0,0.122881,0.032768,1.997743,0.972099
857,28,415,0,442,0,0.063205,1,0.063205,0,0.118896,0.031638,1.997743,0.973651
858,27,416,0,442,0,0.060948,1,0.060948,0,0.114894,0.030508,1.997743,0.97374
859,26,417,0,442,0,0.058691,1,0.058691,0,0.110874,0.029379,1.997743,0.974852
860,25,418,0,442,0,0.056433,1,0.056433,0,0.106838,0.028249,1.997743,0.975125
861,24,419,0,442,0,0.054176,1,0.054176,0,0.102784,0.027119,1.997743,0.975294
862,23,420,0,442,0,0.051919,1,0.051919,0,0.098712,0.025989,1.997743,0.975685
863,22,421,0,442,0,0.049661,1,0.049661,0,0.094624,0.024859,1.997743,0.977413
864,21,422,0,442,0,0.047404,1,0.047404,0,0.090517,0.023729,1.997743,0.978413
865,20,423,0,442,0,0.045147,1,0.045147,0,0.086393,0.022599,1.997743,0.978582
866,19,424,0,442,0,0.042889,1,0.042889,0,0.082251,0.021469,1.997743,0.9813
867,18,425,0,442,0,0.040632,1,0.040632,0,0.078091,0.020339,1.997743,0.981584
868,17,426,0,442,0,0.038375,1,0.038375,0,0.073913,0.019209,1.997743,0.981837
869,16,427,0,442,0,0.036117,1,0.036117,0,0.069717,0.018079,1.997743,0.982782
870,15,428,0,442,0,0.03386,1,0.03386,0,0.065502,0.016949,1.997743,0.983413
871,14,429,0,442,0,0.031603,1,0.031603,0,0.061269,0.015819,1.997743,0.98405
872,13,430,0,442,0,0.029345,1,0.029345,0,0.057018,0.014689,1.997743,0.985021
873,12,431,0,442,0,0.027088,1,0.027088,0,0.052747,0.013559,1.997743,0.986125
874,11,432,0,442,0,0.024831,1,0.024831,0,0.048458,0.012429,1.997743,0.986709
875,10,433,0,442,0,0.022573,1,0.022573,0,0.04415,0.011299,1.997743,0.988944
876,9,434,0,442,0,0.020316,1,0.020316,0,0.039823,0.010169,1.997743,0.991824
877,8,435,0,442,0,0.018059,1,0.018059,0,0.035477,0.00904,1.997743,0.992164
878,7,436,0,442,0,0.015801,1,0.015801,0,0.031111,0.00791,1.997743,0.992541
879,6,437,0,442,0,0.013544,1,0.013544,0,0.026726,0.00678,1.997743,0.993955
880,5,438,0,442,0,0.011287,1,0.011287,0,0.022321,0.00565,1.997743,0.994335
881,4,439,0,442,0,0.009029,1,0.009029,0,0.017897,0.00452,1.997743,0.994468
882,3,440,0,442,0,0.006772,1,0.006772,0,0.013453,0.00339,1.997743,0.994797
883,2,441,0,442,0,0.004515,1,0.004515,0,0.008989,0.00226,1.997743,0.99484
884,1,442,0,442,0,0.002257,1,0.002257,0,0.004505,0.00113,?,0.995501
885,0,443,0,442,0,0,?,0,?,?,0,?,0.995511