@relation 'data_all-weka.filters.unsupervised.attribute.Remove-R8,30-33-weka.filters.unsupervised.attribute.Remove-R27-28-weka.filters.unsupervised.attribute.NumericToNominal-R1,2,4,5,6,8-11,13-18,20-weka.filters.unsupervised.attribute.Remove-R21-26-weka.filters.supervised.instance.StratifiedRemoveFolds-S0-V-N5-F1'

@attribute 'Marital status' {1,2,3,4,5,6}
@attribute 'Application mode' {1,2,5,7,10,15,16,17,18,26,27,39,42,43,44,51,53,57}
@attribute 'Application order' numeric
@attribute Course {33,171,8014,9003,9070,9085,9119,9130,9147,9238,9254,9500,9556,9670,9773,9853,9991}
@attribute 'Daytime/evening attendance' {0,1}
@attribute 'Previous qualification' {1,2,3,4,5,6,9,10,12,14,15,19,38,39,40,42,43}
@attribute 'Previous qualification (grade)' numeric
@attribute 'Mother qualification' {Basic,Secondary,Higher,Unknown}
@attribute 'Father qualification' {Secondary,Higher,Basic,Unknown}
@attribute 'Mother occupation' {Clerical/service,High-skilled,Low-skilled,'Manual skilled',Other/unknown}
@attribute 'Father occupation' {Low-skilled,High-skilled,'Manual skilled',Other/unknown,Clerical/service}
@attribute 'Admission grade' numeric
@attribute Displaced {0,1}
@attribute 'Educational special needs' {0,1}
@attribute Debtor {0,1}
@attribute 'Tuition fees up to date' {0,1}
@attribute Gender {0,1}
@attribute 'Scholarship holder' {0,1}
@attribute 'Age at enrollment' numeric
@attribute International {0,1}
@attribute 'Unemployment rate' numeric
@attribute 'Inflation rate' numeric
@attribute GDP numeric
@attribute Target {'Not on time',Graduate}

@data
1,1,5,9070,1,1,122,Basic,Basic,Low-skilled,Low-skilled,124.8,1,0,0,0,1,0,19,0,10.8,1.4,1.74,'Not on time'
1,18,1,9238,1,1,137,Basic,Basic,Clerical/service,'Manual skilled',137.4,1,0,0,1,0,0,18,0,10.8,1.4,1.74,'Not on time'
1,17,2,9500,1,1,127,Higher,Higher,High-skilled,Other/unknown,118.8,1,0,0,1,1,0,19,0,16.2,0.3,-0.92,'Not on time'
1,43,1,9147,1,1,140,Basic,Basic,'Manual skilled','Manual skilled',122.9,0,0,0,1,0,0,55,0,16.2,0.3,-0.92,'Not on time'
1,17,1,9991,0,1,154,Basic,Basic,Clerical/service,Clerical/service,134.1,0,0,0,1,0,0,24,0,7.6,2.6,0.32,'Not on time'
1,39,1,9130,1,40,129,Higher,Higher,High-skilled,High-skilled,155.3,1,0,0,1,0,0,27,0,12.4,0.5,1.79,'Not on time'
4,42,1,9500,1,19,133.1,Secondary,Secondary,Clerical/service,Clerical/service,126,1,0,0,1,1,0,29,0,13.9,-0.3,0.79,'Not on time'
1,17,4,9254,1,1,118,Basic,Basic,Clerical/service,'Manual skilled',111.7,1,0,0,1,1,0,18,0,12.4,0.5,1.79,'Not on time'
1,39,1,9003,1,4,160,Higher,Higher,Clerical/service,High-skilled,180.4,0,0,1,1,1,0,24,0,12.4,0.5,1.79,'Not on time'
1,15,1,9130,1,1,133.1,Secondary,Secondary,Clerical/service,Clerical/service,100,0,0,0,1,0,0,26,1,8.9,1.4,3.51,'Not on time'
1,53,1,9085,1,42,130,Basic,Basic,Low-skilled,Low-skilled,128.8,0,0,0,1,0,0,21,0,8.9,1.4,3.51,'Not on time'
1,1,5,9500,1,1,111,Higher,Higher,Clerical/service,High-skilled,108.2,1,0,0,1,0,0,20,0,12.4,0.5,1.79,'Not on time'
1,17,1,9238,1,1,154,Basic,Basic,Low-skilled,'Manual skilled',140.4,1,0,0,1,0,1,20,0,7.6,2.6,0.32,'Not on time'
1,1,1,9853,1,1,146,Basic,Basic,Low-skilled,High-skilled,145.3,1,0,0,1,0,1,18,0,9.4,-0.8,-3.12,'Not on time'
1,51,1,9147,1,1,99,Higher,Secondary,High-skilled,High-skilled,99.7,1,0,1,0,0,0,22,0,8.9,1.4,3.51,'Not on time'
1,43,1,9853,1,1,115,Higher,Basic,High-skilled,Clerical/service,108.7,1,0,0,1,0,0,21,0,9.4,-0.8,-3.12,'Not on time'
1,43,1,9238,1,1,125,Basic,Basic,Clerical/service,'Manual skilled',117,1,0,0,1,0,0,21,0,16.2,0.3,-0.92,'Not on time'
1,1,5,9853,1,1,141,Basic,Basic,Low-skilled,Clerical/service,133,1,0,0,1,0,0,18,0,9.4,-0.8,-3.12,'Not on time'
1,17,2,9254,1,1,143,Secondary,Basic,Clerical/service,'Manual skilled',135,0,0,0,1,0,0,20,0,11.1,0.6,2.02,'Not on time'
1,39,1,9147,1,1,140,Secondary,Higher,Clerical/service,High-skilled,118,1,0,0,1,0,0,24,0,7.6,2.6,0.32,'Not on time'
1,39,1,9254,1,19,133.1,Higher,Basic,High-skilled,High-skilled,124.5,0,0,0,1,0,1,36,0,16.2,0.3,-0.92,'Not on time'
1,17,1,9085,1,1,121,Basic,Basic,High-skilled,High-skilled,131.5,0,0,0,1,0,0,21,0,7.6,2.6,0.32,'Not on time'
1,1,1,9130,1,1,126,Basic,Secondary,Low-skilled,Low-skilled,122.5,1,0,0,0,0,0,25,0,9.4,-0.8,-3.12,'Not on time'
1,44,1,9003,1,39,130,Basic,Basic,Low-skilled,Other/unknown,130,0,0,1,0,0,0,29,0,13.9,-0.3,0.79,'Not on time'
1,17,3,9070,1,1,116,Basic,Basic,Low-skilled,Low-skilled,110.8,0,0,0,1,0,0,18,0,7.6,2.6,0.32,'Not on time'
1,42,1,9853,1,1,120,Basic,Basic,High-skilled,High-skilled,113.7,0,0,0,1,0,0,20,0,12.7,3.7,-1.7,'Not on time'
1,1,1,9070,1,1,130,Basic,Basic,High-skilled,'Manual skilled',135.6,1,0,0,1,0,1,19,0,8.9,1.4,3.51,'Not on time'
1,44,1,9130,1,39,120,Basic,Basic,'Manual skilled','Manual skilled',120,1,0,1,0,0,0,19,0,12.4,0.5,1.79,'Not on time'
1,5,3,9085,1,1,141,Secondary,Basic,'Manual skilled',Clerical/service,128.8,1,0,0,1,0,0,19,0,7.6,2.6,0.32,'Not on time'
1,1,1,9085,1,1,129,Secondary,Higher,High-skilled,High-skilled,125.9,1,0,0,1,0,0,19,0,9.4,-0.8,-3.12,'Not on time'
1,1,1,9254,1,1,117,Basic,Basic,Low-skilled,Low-skilled,116.3,1,0,0,1,0,0,24,0,12.7,3.7,-1.7,'Not on time'
1,39,1,9085,1,43,160,Higher,Secondary,High-skilled,High-skilled,172,0,0,0,1,0,0,26,0,8.9,1.4,3.51,'Not on time'
1,1,6,9500,1,1,138,Basic,Basic,Low-skilled,Clerical/service,124.8,1,0,0,1,0,0,18,0,12.7,3.7,-1.7,'Not on time'
1,17,1,9853,1,1,125,Higher,Higher,High-skilled,High-skilled,116.6,1,0,0,0,0,1,18,0,8.9,1.4,3.51,'Not on time'
1,17,1,9853,1,1,134,Secondary,Basic,Clerical/service,Clerical/service,122.5,1,0,0,1,0,0,22,0,15.5,2.8,-4.06,'Not on time'
1,17,1,9670,1,1,124,Basic,Basic,Clerical/service,'Manual skilled',114.2,1,0,1,1,0,0,18,0,10.8,1.4,1.74,'Not on time'
1,1,1,9254,1,1,128,Basic,Basic,Low-skilled,Low-skilled,127,0,0,0,1,0,0,19,0,12.4,0.5,1.79,'Not on time'
1,17,1,9147,1,1,116,Basic,Higher,Low-skilled,High-skilled,112.2,1,0,0,1,0,0,20,0,10.8,1.4,1.74,'Not on time'
1,43,1,9556,1,1,147,Higher,Higher,High-skilled,High-skilled,100,0,0,0,1,0,0,18,0,10.8,1.4,1.74,'Not on time'
1,7,1,9003,1,3,130,Basic,Basic,Clerical/service,'Manual skilled',130,0,0,0,1,0,0,32,0,12.4,0.5,1.79,'Not on time'
1,1,1,9670,1,1,142,Basic,Basic,'Manual skilled',Other/unknown,128.4,0,0,0,1,0,0,23,0,11.1,0.6,2.02,'Not on time'
1,1,3,9500,1,1,130,Higher,Secondary,High-skilled,Clerical/service,133.8,0,0,0,1,0,0,19,0,7.6,2.6,0.32,'Not on time'
1,1,1,9853,1,1,126,Higher,Secondary,High-skilled,Clerical/service,116.9,1,1,0,1,0,0,18,0,13.9,-0.3,0.79,'Not on time'
1,7,2,9085,1,3,130,Higher,Higher,High-skilled,High-skilled,130,0,0,0,0,0,0,28,0,10.8,1.4,1.74,'Not on time'
1,1,2,9070,1,1,121,Higher,Secondary,High-skilled,High-skilled,120.7,1,0,0,1,0,0,18,0,9.4,-0.8,-3.12,'Not on time'
1,17,2,9853,1,1,138,Secondary,Secondary,Low-skilled,Clerical/service,123,1,0,0,1,0,0,23,0,10.8,1.4,1.74,'Not on time'
1,39,1,9119,1,19,133.1,Basic,Basic,Clerical/service,High-skilled,100.9,1,0,0,1,1,0,24,0,10.8,1.4,1.74,'Not on time'
1,44,1,9070,1,39,120,Secondary,Basic,Clerical/service,'Manual skilled',120,0,0,1,0,1,0,20,0,16.2,0.3,-0.92,'Not on time'
1,1,2,9147,1,1,133,Basic,Secondary,Clerical/service,Other/unknown,121.8,0,0,0,1,1,0,20,0,15.5,2.8,-4.06,'Not on time'
1,39,1,9773,1,19,133.1,Basic,Secondary,'Manual skilled',Low-skilled,115,1,0,1,0,1,0,25,0,12.7,3.7,-1.7,'Not on time'
1,17,1,9147,1,1,130,Basic,Secondary,'Manual skilled',Clerical/service,117.8,1,0,0,1,1,0,20,0,10.8,1.4,1.74,'Not on time'
1,17,4,9119,1,1,129,Unknown,Basic,Other/unknown,Clerical/service,118.9,1,0,0,1,1,0,18,0,7.6,2.6,0.32,'Not on time'
1,39,2,9991,0,1,172,Basic,Basic,Low-skilled,'Manual skilled',150,1,0,0,1,0,1,28,0,9.4,-0.8,-3.12,'Not on time'
1,17,1,9003,1,1,119,Basic,Basic,Clerical/service,'Manual skilled',113.2,0,0,1,1,0,0,20,0,11.1,0.6,2.02,'Not on time'
1,17,5,9070,1,1,122,Basic,Basic,Clerical/service,'Manual skilled',119.6,0,0,1,0,0,0,21,0,10.8,1.4,1.74,'Not on time'
1,17,3,9147,1,1,118,Secondary,Basic,Clerical/service,'Manual skilled',118,0,0,0,1,0,0,20,0,12.4,0.5,1.79,'Not on time'
1,1,1,9853,1,1,133.1,Basic,Basic,Low-skilled,'Manual skilled',132,1,0,0,1,0,0,21,0,12.7,3.7,-1.7,'Not on time'
1,1,6,9147,1,1,128,Basic,Basic,Low-skilled,Low-skilled,116.5,0,0,0,1,0,0,18,0,7.6,2.6,0.32,'Not on time'
1,1,1,9238,1,1,135,Basic,Secondary,High-skilled,Clerical/service,121,0,0,0,1,0,0,21,0,7.6,2.6,0.32,'Not on time'
1,1,1,9500,1,1,117,Basic,Basic,Low-skilled,Low-skilled,117.4,1,0,0,1,0,0,19,0,11.1,0.6,2.02,'Not on time'
1,1,1,9853,1,1,133,Basic,Basic,'Manual skilled','Manual skilled',126.7,1,0,0,1,0,0,18,0,15.5,2.8,-4.06,'Not on time'
4,39,2,9147,1,19,133.1,Basic,Basic,Low-skilled,'Manual skilled',116.4,0,0,1,0,1,0,70,0,10.8,1.4,1.74,'Not on time'
1,1,1,9254,1,1,154,Higher,Secondary,High-skilled,High-skilled,137.2,0,0,0,1,1,0,20,0,15.5,2.8,-4.06,'Not on time'
2,39,1,9991,0,1,120,Basic,Basic,Low-skilled,Low-skilled,133.2,1,0,0,1,1,0,32,0,7.6,2.6,0.32,'Not on time'
1,39,1,9130,1,9,133.1,Unknown,Basic,Other/unknown,Other/unknown,107.5,0,0,0,1,1,0,29,0,7.6,2.6,0.32,'Not on time'
1,1,1,9254,1,1,115,Basic,Secondary,High-skilled,'Manual skilled',113.6,0,0,0,1,1,0,23,0,11.1,0.6,2.02,'Not on time'
1,1,1,9773,1,1,120,Basic,Basic,Low-skilled,Low-skilled,118.3,0,0,1,0,1,1,18,0,13.9,-0.3,0.79,'Not on time'
1,51,1,9773,1,1,158,Secondary,Basic,'Manual skilled','Manual skilled',117.1,1,0,0,1,1,0,20,0,8.9,1.4,3.51,'Not on time'
1,51,1,9003,1,39,130,Secondary,Basic,Clerical/service,Clerical/service,120,1,0,1,0,1,0,22,0,8.9,1.4,3.51,'Not on time'
1,43,1,9991,0,1,130,Basic,Higher,Low-skilled,Clerical/service,126.5,1,0,0,0,1,0,23,0,7.6,2.6,0.32,'Not on time'
1,17,6,9773,1,1,126,Secondary,Basic,Clerical/service,Clerical/service,119,1,0,0,1,0,0,18,0,12.4,0.5,1.79,'Not on time'
1,17,1,9853,1,1,119,Higher,Higher,High-skilled,High-skilled,110.6,0,0,0,1,0,0,20,0,11.1,0.6,2.02,'Not on time'
1,1,1,9853,1,1,127,Higher,Secondary,High-skilled,'Manual skilled',137.2,1,0,0,1,0,0,18,0,10.8,1.4,1.74,'Not on time'
1,1,4,9773,1,1,143,Secondary,Higher,Clerical/service,'Manual skilled',129.7,1,0,0,1,0,0,20,0,8.9,1.4,3.51,'Not on time'
1,17,2,9500,1,1,132,Basic,Basic,High-skilled,Clerical/service,125.4,1,0,0,0,0,1,20,0,11.1,0.6,2.02,'Not on time'
1,39,1,9238,1,9,133.1,Unknown,Unknown,Other/unknown,Other/unknown,118,0,0,0,1,0,0,47,0,7.6,2.6,0.32,'Not on time'
1,17,3,9119,1,1,138,Higher,Higher,High-skilled,Clerical/service,125.4,1,1,0,1,1,0,19,0,8.9,1.4,3.51,'Not on time'
1,39,1,9130,1,1,133.1,Higher,Unknown,High-skilled,Other/unknown,120,0,0,1,0,1,0,29,0,9.4,-0.8,-3.12,'Not on time'
1,1,3,9773,1,1,140,Secondary,Secondary,Clerical/service,High-skilled,128.1,1,1,0,1,1,0,21,0,16.2,0.3,-0.92,'Not on time'
1,18,2,9119,1,1,136,Secondary,Higher,Clerical/service,Clerical/service,122.7,1,0,0,1,1,0,18,0,13.9,-0.3,0.79,'Not on time'
1,39,1,9119,1,3,130,Secondary,Basic,Other/unknown,Other/unknown,143.4,0,0,0,1,1,0,29,0,10.8,1.4,1.74,'Not on time'
1,39,2,9556,1,1,130,Basic,Basic,Clerical/service,Clerical/service,100,0,0,0,1,1,1,25,0,15.5,2.8,-4.06,'Not on time'
1,7,1,8014,0,3,140,Basic,Secondary,Low-skilled,Clerical/service,140,0,0,0,0,0,0,26,0,9.4,-0.8,-3.12,'Not on time'
1,1,4,9670,1,1,127,Secondary,Secondary,'Manual skilled','Manual skilled',116.5,1,0,0,1,0,0,20,0,16.2,0.3,-0.92,'Not on time'
2,39,1,9991,0,1,147,Unknown,Unknown,Other/unknown,Other/unknown,111.7,1,0,0,1,0,0,28,0,7.6,2.6,0.32,'Not on time'
1,7,1,9085,1,3,140,Basic,Secondary,Clerical/service,Other/unknown,140,1,0,0,1,0,0,32,0,10.8,1.4,1.74,'Not on time'
2,39,1,9147,1,1,140,Basic,Basic,Low-skilled,Low-skilled,127.7,1,0,0,1,0,0,31,0,7.6,2.6,0.32,'Not on time'
4,39,1,8014,0,19,133.1,Basic,Basic,Other/unknown,'Manual skilled',110,0,0,0,0,0,0,31,0,9.4,-0.8,-3.12,'Not on time'
2,39,1,9991,0,1,133.1,Basic,Basic,Low-skilled,Low-skilled,132.8,0,0,1,0,1,0,45,0,12.4,0.5,1.79,'Not on time'
1,39,1,9670,1,1,120,Unknown,Unknown,Other/unknown,Other/unknown,106,1,0,0,0,1,0,28,0,7.6,2.6,0.32,'Not on time'
1,39,1,9119,1,1,150,Secondary,Basic,High-skilled,Clerical/service,120,0,0,0,1,1,0,24,0,15.5,2.8,-4.06,'Not on time'
1,42,1,9119,1,6,120,Basic,Basic,'Manual skilled','Manual skilled',128.2,1,0,0,1,1,0,34,0,7.6,2.6,0.32,'Not on time'
1,1,1,9238,1,1,127,Higher,Higher,High-skilled,Clerical/service,115.8,1,0,0,1,1,0,19,0,11.1,0.6,2.02,'Not on time'
1,1,3,9070,1,1,146,Unknown,Unknown,Other/unknown,Other/unknown,143.6,1,0,0,1,0,0,18,0,7.6,2.6,0.32,'Not on time'
1,17,1,9147,1,1,138,Basic,Secondary,Low-skilled,Low-skilled,123.7,1,0,1,1,0,1,19,0,11.1,0.6,2.02,'Not on time'
1,1,3,9070,1,1,125,Secondary,Basic,Low-skilled,'Manual skilled',118,0,0,0,1,0,1,18,0,11.1,0.6,2.02,'Not on time'
1,17,3,9500,1,1,138,Higher,Higher,Clerical/service,Clerical/service,130,1,0,0,1,0,0,18,0,13.9,-0.3,0.79,'Not on time'
1,1,1,9853,1,1,163,Basic,Secondary,Clerical/service,Other/unknown,146.6,1,0,1,1,0,0,18,0,9.4,-0.8,-3.12,'Not on time'
1,43,1,171,1,1,116,Higher,Secondary,High-skilled,High-skilled,117.3,1,0,1,1,0,0,20,0,13.9,-0.3,0.79,'Not on time'
1,17,3,9773,1,1,127,Basic,Basic,Clerical/service,'Manual skilled',120,0,0,0,1,0,0,18,0,8.9,1.4,3.51,'Not on time'
1,17,1,9130,1,1,122,Basic,Basic,Low-skilled,Low-skilled,121.7,1,0,0,0,0,0,22,0,9.4,-0.8,-3.12,'Not on time'
1,51,1,9991,0,42,110,Basic,Basic,Clerical/service,Low-skilled,128.2,0,0,0,0,0,0,22,0,8.9,1.4,3.51,'Not on time'
1,39,1,9238,1,1,170,Basic,Basic,Low-skilled,Low-skilled,140,1,0,0,1,0,0,24,0,9.4,-0.8,-3.12,'Not on time'
1,17,6,9147,1,1,121,Basic,Basic,'Manual skilled',Low-skilled,123.8,0,0,0,1,0,1,19,0,12.7,3.7,-1.7,'Not on time'
1,17,1,171,1,1,145,Basic,Basic,Low-skilled,High-skilled,150.3,1,0,0,1,0,0,19,0,15.5,2.8,-4.06,'Not on time'
4,7,1,9500,1,40,130,Basic,Basic,High-skilled,High-skilled,130,1,0,0,1,0,0,32,0,12.4,0.5,1.79,'Not on time'
1,39,1,9991,0,1,130,Secondary,Secondary,Clerical/service,Other/unknown,115.2,0,0,0,1,1,0,24,0,12.4,0.5,1.79,'Not on time'
1,1,2,9500,1,1,133.1,Basic,Basic,Low-skilled,Low-skilled,96,1,0,0,1,0,0,19,0,11.1,0.6,2.02,'Not on time'
1,7,1,9070,1,3,140,Basic,Higher,Low-skilled,High-skilled,140,0,0,0,0,0,0,23,0,10.8,1.4,1.74,'Not on time'
1,7,1,8014,0,3,130,Basic,Basic,Other/unknown,Clerical/service,130,0,0,0,0,0,0,28,0,12.7,3.7,-1.7,'Not on time'
1,1,2,171,1,1,136,Secondary,Secondary,High-skilled,Clerical/service,134.3,1,0,1,1,0,0,19,0,12.4,0.5,1.79,'Not on time'
1,1,1,9670,1,1,133.1,Higher,Secondary,Clerical/service,Clerical/service,95,0,0,0,1,1,0,19,0,15.5,2.8,-4.06,'Not on time'
2,39,1,9853,1,1,133.1,Basic,Basic,Clerical/service,Clerical/service,116.5,0,0,0,1,0,0,34,0,16.2,0.3,-0.92,'Not on time'
4,39,1,9130,1,1,133.1,Higher,Secondary,Clerical/service,Clerical/service,110,1,0,0,1,0,1,30,0,11.1,0.6,2.02,'Not on time'
1,17,1,9773,1,1,121,Basic,Basic,Low-skilled,Other/unknown,113.7,0,0,0,1,0,0,18,0,15.5,2.8,-4.06,'Not on time'
1,17,5,9254,1,1,121,Secondary,Basic,Clerical/service,'Manual skilled',116.5,1,0,0,0,1,0,18,0,9.4,-0.8,-3.12,'Not on time'
2,39,1,9003,1,1,168,Secondary,Higher,Low-skilled,High-skilled,153.9,0,0,1,0,1,0,34,0,12.4,0.5,1.79,'Not on time'
1,17,1,9147,1,1,123,Secondary,Basic,High-skilled,Clerical/service,122,0,0,0,1,1,0,19,0,8.9,1.4,3.51,'Not on time'
1,1,5,9773,1,1,130,Unknown,Basic,Other/unknown,'Manual skilled',128.3,1,0,0,0,0,1,18,0,7.6,2.6,0.32,'Not on time'
1,17,1,9254,1,1,137,Unknown,Basic,Other/unknown,'Manual skilled',137.7,1,0,1,0,0,0,19,0,7.6,2.6,0.32,'Not on time'
1,39,1,9500,1,1,133.1,Secondary,Basic,High-skilled,'Manual skilled',121.7,0,0,0,1,0,1,27,0,12.4,0.5,1.79,'Not on time'
1,53,1,9085,1,42,140,Basic,Basic,'Manual skilled',Low-skilled,144.9,1,0,1,0,0,0,23,0,8.9,1.4,3.51,'Not on time'
1,39,1,9254,1,19,133.1,Basic,Secondary,Low-skilled,Clerical/service,97,0,0,1,0,1,0,36,0,15.5,2.8,-4.06,'Not on time'
1,39,1,9670,1,9,133.1,Secondary,Secondary,High-skilled,High-skilled,120,0,0,1,0,1,0,26,0,9.4,-0.8,-3.12,'Not on time'
1,17,1,9147,1,1,136,Secondary,Secondary,Low-skilled,High-skilled,122.7,1,0,0,1,1,0,18,0,15.5,2.8,-4.06,'Not on time'
1,43,1,9130,1,1,120,Higher,Higher,High-skilled,High-skilled,120,1,0,0,0,1,0,22,0,10.8,1.4,1.74,'Not on time'
1,1,2,171,1,1,140,Secondary,Higher,High-skilled,High-skilled,138.3,1,0,0,1,0,0,18,0,12.4,0.5,1.79,'Not on time'
1,39,1,8014,0,19,133.1,Basic,Basic,Low-skilled,Clerical/service,135.5,0,0,0,1,0,0,58,0,11.1,0.6,2.02,'Not on time'
1,1,3,9147,1,1,127,Secondary,Basic,Clerical/service,'Manual skilled',123.5,1,0,0,1,0,1,19,0,9.4,-0.8,-3.12,'Not on time'
1,1,3,9254,1,1,129,Basic,Basic,'Manual skilled','Manual skilled',122,1,0,0,1,0,1,18,0,7.6,2.6,0.32,'Not on time'
1,1,2,9254,1,1,110,Higher,Basic,Clerical/service,High-skilled,114.8,1,0,0,0,1,0,18,0,12.7,3.7,-1.7,'Not on time'
1,1,1,171,1,1,132,Secondary,Secondary,Clerical/service,High-skilled,119.4,1,0,0,1,1,0,20,0,10.8,1.4,1.74,'Not on time'
1,1,1,9670,1,1,136,Higher,Basic,Clerical/service,'Manual skilled',129.7,1,0,0,1,1,0,19,0,16.2,0.3,-0.92,'Not on time'
1,17,2,9254,1,1,135,Basic,Basic,Clerical/service,High-skilled,135,1,0,0,1,1,0,20,0,7.6,2.6,0.32,'Not on time'
1,17,1,9773,1,1,117,Basic,Basic,Other/unknown,Clerical/service,120.5,1,0,0,1,1,0,19,0,9.4,-0.8,-3.12,'Not on time'
1,53,1,9085,1,42,150,Secondary,Secondary,Low-skilled,Clerical/service,150,1,0,0,1,1,1,22,0,8.9,1.4,3.51,'Not on time'
4,39,1,9003,1,1,140,Basic,Basic,Low-skilled,'Manual skilled',150,0,0,0,1,1,0,28,0,11.1,0.6,2.02,'Not on time'
1,39,1,9991,0,1,160,Basic,Basic,Low-skilled,Low-skilled,160,0,0,0,1,0,1,31,1,15.5,2.8,-4.06,'Not on time'
1,7,1,9500,1,5,140,Basic,Secondary,Clerical/service,High-skilled,140,1,0,0,0,0,0,39,0,12.4,0.5,1.79,'Not on time'
1,1,1,9670,1,1,125,Basic,Secondary,'Manual skilled',Clerical/service,122.6,0,0,0,1,1,0,21,0,9.4,-0.8,-3.12,'Not on time'
1,7,1,9119,1,4,180,Higher,Higher,High-skilled,'Manual skilled',180,0,0,1,1,1,0,30,0,13.9,-0.3,0.79,'Not on time'
1,17,1,9147,1,1,129,Basic,Basic,High-skilled,Clerical/service,132.9,1,0,0,1,0,0,19,0,9.4,-0.8,-3.12,'Not on time'
1,18,1,9773,1,1,125,Basic,Basic,Low-skilled,Clerical/service,122.2,0,0,0,0,0,0,18,0,11.1,0.6,2.02,'Not on time'
1,17,1,9147,1,1,139,Secondary,Basic,'Manual skilled','Manual skilled',143.6,1,0,1,1,1,0,18,0,7.6,2.6,0.32,'Not on time'
1,17,4,9085,1,1,106,Basic,Secondary,High-skilled,Low-skilled,106,0,0,0,1,0,0,20,0,13.9,-0.3,0.79,'Not on time'
6,39,1,9991,0,12,130,Basic,Basic,Other/unknown,Other/unknown,119,1,0,0,0,1,0,55,0,7.6,2.6,0.32,'Not on time'
1,16,1,171,1,1,158,Basic,Basic,Low-skilled,Low-skilled,164.3,1,0,0,1,1,1,18,0,10.8,1.4,1.74,'Not on time'
1,17,2,9119,1,1,133.1,Secondary,Higher,High-skilled,High-skilled,117,1,0,0,1,1,0,21,0,12.4,0.5,1.79,'Not on time'
1,1,3,171,1,1,129,Basic,Basic,Low-skilled,High-skilled,127.3,1,0,1,0,1,1,19,0,9.4,-0.8,-3.12,'Not on time'
1,17,1,9773,1,1,117,Basic,Basic,Low-skilled,Low-skilled,111.1,0,0,1,1,1,0,19,0,16.2,0.3,-0.92,'Not on time'
1,17,1,9773,1,1,128,Basic,Basic,Low-skilled,Other/unknown,125.2,1,0,0,1,1,0,18,0,12.4,0.5,1.79,'Not on time'
1,39,1,8014,0,1,120,Basic,Secondary,'Manual skilled',Clerical/service,95,1,0,0,1,0,0,24,0,15.5,2.8,-4.06,'Not on time'
1,39,1,9991,0,1,110,Basic,Basic,'Manual skilled',Other/unknown,150,0,0,0,0,0,0,48,0,15.5,2.8,-4.06,'Not on time'
1,43,1,8014,0,1,130,Basic,Higher,High-skilled,High-skilled,100,0,0,0,1,1,0,54,0,12.7,3.7,-1.7,'Not on time'
1,1,1,9500,1,1,141,Higher,Secondary,Low-skilled,Low-skilled,124.3,0,0,0,1,0,0,19,0,12.7,3.7,-1.7,'Not on time'
1,1,1,9773,1,1,150,Secondary,Secondary,Clerical/service,Clerical/service,138.1,1,0,0,1,0,0,19,0,11.1,0.6,2.02,'Not on time'
1,17,1,9556,1,1,140,Higher,Higher,High-skilled,'Manual skilled',131.6,1,0,0,1,1,0,19,0,11.1,0.6,2.02,'Not on time'
1,1,1,9670,1,1,124,Higher,Higher,High-skilled,High-skilled,124.7,1,0,0,1,1,0,21,0,7.6,2.6,0.32,'Not on time'
1,18,3,9070,1,1,142,Secondary,Basic,Clerical/service,'Manual skilled',130.8,1,0,0,0,1,0,19,0,12.7,3.7,-1.7,'Not on time'
1,7,1,9500,1,3,130,Basic,Basic,Other/unknown,Other/unknown,130,1,0,0,1,1,0,30,0,9.4,-0.8,-3.12,'Not on time'
1,39,1,9556,1,19,133.1,Basic,Secondary,'Manual skilled',Other/unknown,105,0,0,0,1,1,0,25,0,15.5,2.8,-4.06,'Not on time'
1,39,1,9119,1,1,160,Basic,Basic,'Manual skilled','Manual skilled',129,0,0,0,1,1,0,24,0,7.6,2.6,0.32,'Not on time'
1,1,1,9130,1,1,136,Basic,Basic,Other/unknown,'Manual skilled',133.9,1,0,0,0,1,0,20,0,10.8,1.4,1.74,'Not on time'
2,39,1,9070,1,19,133.1,Basic,Basic,Low-skilled,Other/unknown,126.3,0,0,0,0,1,0,38,0,10.8,1.4,1.74,'Not on time'
1,39,1,9670,1,1,133.1,Basic,Basic,Other/unknown,Other/unknown,97.4,0,0,1,0,1,0,44,0,12.7,3.7,-1.7,'Not on time'
1,43,1,9070,1,1,108,Basic,Basic,'Manual skilled','Manual skilled',105.2,1,0,0,1,1,0,25,0,12.7,3.7,-1.7,'Not on time'
1,1,1,9119,1,1,150,Secondary,Secondary,High-skilled,High-skilled,143.4,0,0,0,0,1,1,18,0,8.9,1.4,3.51,'Not on time'
1,39,1,9003,1,1,140,Secondary,Secondary,Low-skilled,Low-skilled,100,0,0,1,0,0,0,29,1,15.5,2.8,-4.06,'Not on time'
1,39,1,9147,1,1,133.1,Basic,Basic,Low-skilled,'Manual skilled',134.8,0,0,0,1,0,0,24,1,16.2,0.3,-0.92,'Not on time'
1,1,1,9670,1,1,133.1,Secondary,Basic,Low-skilled,Other/unknown,139,0,0,0,1,1,0,21,0,10.8,1.4,1.74,'Not on time'
2,39,1,9238,1,19,133.1,Basic,Basic,Low-skilled,Clerical/service,103.5,0,0,0,1,1,0,42,0,15.5,2.8,-4.06,'Not on time'
1,43,1,9500,1,1,136,Basic,Basic,'Manual skilled','Manual skilled',118.4,1,0,0,1,0,0,21,0,13.9,-0.3,0.79,'Not on time'
1,43,2,9670,1,1,130,Basic,Secondary,Clerical/service,Clerical/service,127.6,1,0,0,1,1,0,22,0,10.8,1.4,1.74,'Not on time'
1,1,5,9119,1,1,131,Secondary,Basic,Clerical/service,'Manual skilled',126.8,0,0,0,0,1,1,18,0,8.9,1.4,3.51,'Not on time'
1,17,3,9500,1,1,140,Higher,Higher,High-skilled,High-skilled,126.4,1,0,0,1,0,0,18,0,11.1,0.6,2.02,'Not on time'
1,17,1,9085,1,1,125,Secondary,Basic,Clerical/service,Low-skilled,118.4,1,0,0,1,0,0,21,0,9.4,-0.8,-3.12,'Not on time'
2,39,1,9500,1,1,133.1,Basic,Basic,Low-skilled,Low-skilled,109,1,0,0,1,0,0,39,0,7.6,2.6,0.32,'Not on time'
1,17,1,9003,1,1,126,Basic,Higher,Clerical/service,High-skilled,116.9,0,0,0,1,1,0,19,0,13.9,-0.3,0.79,'Not on time'
1,39,1,9085,1,1,140,Basic,Basic,Other/unknown,Other/unknown,106.3,0,0,1,0,1,0,35,0,7.6,2.6,0.32,'Not on time'
1,1,1,9254,1,1,121,Secondary,Secondary,Clerical/service,Clerical/service,111.9,1,0,0,0,1,0,20,0,10.8,1.4,1.74,'Not on time'
1,1,6,9500,1,1,119,Secondary,Secondary,Clerical/service,Clerical/service,115,1,0,0,1,1,1,20,0,11.1,0.6,2.02,'Not on time'
2,44,1,9119,1,39,160,Basic,Basic,Low-skilled,Low-skilled,160,0,0,1,1,1,0,41,0,12.4,0.5,1.79,'Not on time'
2,43,1,9773,1,1,160,Basic,Basic,Clerical/service,Other/unknown,160,0,0,1,0,1,0,51,0,12.7,3.7,-1.7,'Not on time'
1,1,1,9773,1,1,121,Higher,Higher,High-skilled,High-skilled,112.3,1,0,1,0,0,0,18,0,11.1,0.6,2.02,'Not on time'
1,1,1,9853,1,1,142,Basic,Secondary,Low-skilled,High-skilled,132.6,0,0,0,1,0,0,18,0,9.4,-0.8,-3.12,'Not on time'
1,1,1,9254,1,1,123,Basic,Basic,Clerical/service,'Manual skilled',114.3,0,0,0,1,0,0,19,0,11.1,0.6,2.02,'Not on time'
1,1,1,9238,1,1,133.1,Secondary,Basic,Clerical/service,Low-skilled,107,1,0,0,1,0,0,19,0,11.1,0.6,2.02,'Not on time'
1,51,1,9238,1,1,122,Basic,Higher,Clerical/service,High-skilled,112.6,0,0,1,1,0,0,20,0,11.1,0.6,2.02,'Not on time'
2,39,1,9991,0,1,140,Basic,Basic,Low-skilled,Other/unknown,130,0,0,0,1,0,0,34,0,9.4,-0.8,-3.12,'Not on time'
1,39,1,8014,0,1,134,Basic,Basic,Clerical/service,'Manual skilled',110,1,0,0,1,0,0,24,0,9.4,-0.8,-3.12,'Not on time'
1,1,6,9773,1,1,133.1,Secondary,Secondary,Other/unknown,Other/unknown,129.6,0,0,0,1,0,0,22,0,7.6,2.6,0.32,'Not on time'
1,42,1,9003,1,1,160,Basic,Secondary,Low-skilled,Clerical/service,107.8,1,0,0,0,1,0,27,0,15.5,2.8,-4.06,'Not on time'
4,39,1,9254,1,1,140,Basic,Basic,Low-skilled,Low-skilled,112,0,0,1,1,0,0,45,0,12.7,3.7,-1.7,'Not on time'
1,1,5,9853,1,1,128,Basic,Basic,Low-skilled,Low-skilled,120.3,1,0,1,0,0,0,20,0,10.8,1.4,1.74,'Not on time'
1,44,1,9085,1,39,150,Basic,Basic,Low-skilled,Low-skilled,150,0,0,0,1,0,0,20,0,12.4,0.5,1.79,'Not on time'
1,7,1,8014,0,3,140,Secondary,Secondary,Clerical/service,Clerical/service,140,0,0,0,1,0,0,30,0,10.8,1.4,1.74,'Not on time'
1,7,1,9500,1,3,140,Higher,Secondary,Clerical/service,Clerical/service,140,0,0,0,1,0,0,26,0,13.9,-0.3,0.79,'Not on time'
1,16,1,9070,1,1,145,Secondary,Secondary,High-skilled,High-skilled,146.1,1,0,0,1,0,0,18,0,9.4,-0.8,-3.12,'Not on time'
1,1,5,9500,1,1,141,Basic,Basic,Low-skilled,Low-skilled,142.3,1,0,0,1,0,0,18,0,9.4,-0.8,-3.12,'Not on time'
1,17,2,9500,1,1,131,Basic,Secondary,Clerical/service,'Manual skilled',118.4,1,0,0,1,0,1,20,0,16.2,0.3,-0.92,'Not on time'
1,1,1,9147,1,1,116,Basic,Basic,Clerical/service,'Manual skilled',127.9,0,0,1,0,0,1,20,0,9.4,-0.8,-3.12,'Not on time'
1,17,4,9254,1,1,133,Basic,Basic,Clerical/service,'Manual skilled',128.5,1,0,0,1,0,1,18,0,7.6,2.6,0.32,'Not on time'
1,17,1,171,1,1,136,Basic,Basic,'Manual skilled','Manual skilled',127.3,1,0,0,1,0,0,19,0,15.5,2.8,-4.06,'Not on time'
1,17,1,171,1,1,144,Basic,Basic,Low-skilled,'Manual skilled',129.3,1,0,0,1,1,1,18,0,7.6,2.6,0.32,'Not on time'
1,17,2,9147,1,1,130,Secondary,Basic,Clerical/service,'Manual skilled',122,1,0,0,1,1,0,20,0,10.8,1.4,1.74,'Not on time'
2,7,1,171,1,3,120,Basic,Basic,Low-skilled,Low-skilled,130,1,0,0,1,1,0,37,0,7.6,2.6,0.32,'Not on time'
1,1,5,9773,1,1,131,Secondary,Basic,Low-skilled,Clerical/service,132.4,1,0,1,0,1,0,18,0,11.1,0.6,2.02,'Not on time'
1,43,1,9119,1,1,146,Higher,Secondary,High-skilled,High-skilled,100,0,0,0,1,1,0,18,0,13.9,-0.3,0.79,'Not on time'
1,1,1,171,1,1,124,Higher,Higher,High-skilled,High-skilled,119.1,1,0,0,1,1,0,18,0,16.2,0.3,-0.92,'Not on time'
1,39,1,9254,1,19,133.1,Basic,Basic,Clerical/service,Clerical/service,102.5,0,0,1,0,1,0,24,0,16.2,0.3,-0.92,'Not on time'
1,39,1,9254,1,19,133.1,Basic,Basic,Other/unknown,Other/unknown,100,0,0,0,1,1,0,48,0,7.6,2.6,0.32,'Not on time'
1,16,1,171,1,1,122,Basic,Basic,Low-skilled,'Manual skilled',133.9,1,0,0,1,1,0,25,0,12.4,0.5,1.79,'Not on time'
1,7,1,33,1,40,120,Basic,Basic,Clerical/service,'Manual skilled',120,1,0,1,0,1,0,25,0,11.1,0.6,2.02,'Not on time'
1,1,1,9254,1,1,178,Higher,Secondary,High-skilled,High-skilled,157.7,0,0,0,1,1,0,34,0,15.5,2.8,-4.06,'Not on time'
1,1,4,9147,1,1,108,Higher,Secondary,High-skilled,Clerical/service,109.1,1,0,0,1,1,0,19,0,12.4,0.5,1.79,'Not on time'
2,1,4,8014,0,1,140,Unknown,Unknown,Other/unknown,Other/unknown,128,1,0,0,1,1,0,37,0,9.4,-0.8,-3.12,'Not on time'
1,44,1,9003,1,39,140,Secondary,Basic,Low-skilled,'Manual skilled',140,0,0,0,1,1,0,21,0,15.5,2.8,-4.06,'Not on time'
1,39,1,9991,0,1,133.1,Higher,Basic,High-skilled,'Manual skilled',121.7,0,0,0,1,1,0,31,0,13.9,-0.3,0.79,'Not on time'
1,39,1,9254,1,39,137,Secondary,Secondary,Clerical/service,Other/unknown,124.5,0,0,0,0,1,0,26,0,16.2,0.3,-0.92,'Not on time'
1,17,1,9147,1,1,133.1,Secondary,Basic,Clerical/service,'Manual skilled',95,0,0,0,1,1,0,20,0,11.1,0.6,2.02,'Not on time'
1,1,1,9147,1,1,150,Unknown,Basic,Other/unknown,Clerical/service,152.8,1,0,0,1,1,1,18,0,7.6,2.6,0.32,'Not on time'
4,39,1,9238,1,1,130,Basic,Higher,Low-skilled,High-skilled,140,0,0,0,1,1,0,50,0,8.9,1.4,3.51,'Not on time'
1,51,1,9119,1,1,129,Higher,Basic,High-skilled,Low-skilled,121.6,1,0,0,1,1,0,19,0,7.6,2.6,0.32,'Not on time'
1,1,6,171,1,1,126,Secondary,Secondary,Clerical/service,Clerical/service,130.2,1,0,0,1,1,1,18,0,9.4,-0.8,-3.12,'Not on time'
1,39,1,9003,1,1,111,Basic,Basic,Low-skilled,Other/unknown,95.8,1,0,0,0,1,0,43,0,15.5,2.8,-4.06,'Not on time'
1,44,1,9003,1,39,150,Secondary,Basic,'Manual skilled','Manual skilled',150,1,0,0,1,1,0,21,0,16.2,0.3,-0.92,'Not on time'
1,1,1,9003,1,1,144,Basic,Basic,Low-skilled,Low-skilled,132.8,0,0,0,1,1,1,19,0,15.5,2.8,-4.06,'Not on time'
1,17,3,171,1,1,125,Higher,Secondary,High-skilled,Clerical/service,117,1,1,0,1,1,0,22,0,10.8,1.4,1.74,'Not on time'
1,43,1,9991,0,1,136,Higher,Higher,High-skilled,High-skilled,133.9,0,0,0,0,1,0,26,0,7.6,2.6,0.32,'Not on time'
1,17,4,9147,1,1,132,Basic,Basic,Clerical/service,Clerical/service,120.8,1,0,0,1,1,1,18,0,11.1,0.6,2.02,'Not on time'
1,1,1,9254,1,1,133.1,Higher,Basic,Clerical/service,Clerical/service,98,0,0,0,1,1,0,26,0,10.8,1.4,1.74,'Not on time'
1,1,1,9147,1,1,124,Basic,Basic,Low-skilled,High-skilled,115.6,1,0,0,0,1,0,20,0,9.4,-0.8,-3.12,'Not on time'
1,7,1,9119,1,3,130,Unknown,Unknown,Other/unknown,Other/unknown,130,0,0,0,1,1,0,26,0,10.8,1.4,1.74,'Not on time'
1,39,1,9003,1,1,133.1,Secondary,Secondary,Low-skilled,Clerical/service,129.8,0,0,0,1,1,0,24,1,8.9,1.4,3.51,'Not on time'
1,39,2,9147,1,38,133.1,Basic,Basic,Low-skilled,Low-skilled,102.5,0,0,0,0,1,0,26,0,12.7,3.7,-1.7,'Not on time'
1,17,4,9119,1,1,135,Basic,Basic,Clerical/service,'Manual skilled',126.6,1,0,0,1,1,0,18,0,7.6,2.6,0.32,'Not on time'
1,18,3,9147,1,1,133.1,Secondary,Basic,Clerical/service,'Manual skilled',101,1,0,0,0,1,0,23,0,8.9,1.4,3.51,'Not on time'
1,7,1,9991,0,40,150,Basic,Basic,'Manual skilled','Manual skilled',150,1,0,0,1,1,0,44,0,8.9,1.4,3.51,'Not on time'
1,15,1,171,1,1,130,Secondary,Secondary,High-skilled,Low-skilled,130,0,0,0,1,1,0,21,1,8.9,1.4,3.51,'Not on time'
1,18,3,9254,1,1,121,Basic,Basic,Low-skilled,'Manual skilled',125.9,1,0,0,1,1,0,18,0,13.9,-0.3,0.79,'Not on time'
1,1,1,9119,1,1,146,Basic,Basic,Low-skilled,Low-skilled,148.5,1,0,0,1,1,0,18,0,10.8,1.4,1.74,'Not on time'
2,39,1,9085,1,19,110,Basic,Basic,Other/unknown,Other/unknown,110,0,0,0,0,1,0,29,0,12.7,3.7,-1.7,'Not on time'
1,1,2,9147,1,1,140,Basic,Basic,Low-skilled,Clerical/service,127.8,1,0,0,1,1,0,23,0,9.4,-0.8,-3.12,'Not on time'
1,17,6,9147,1,1,133,Basic,Basic,Clerical/service,'Manual skilled',123.2,1,0,0,1,1,0,20,0,9.4,-0.8,-3.12,'Not on time'
1,39,1,9238,1,19,133.1,Basic,Basic,Low-skilled,Low-skilled,120,0,1,1,1,0,0,40,0,16.2,0.3,-0.92,'Not on time'
1,17,4,9119,1,1,122,Secondary,Secondary,Low-skilled,'Manual skilled',121,1,0,0,1,1,0,20,1,8.9,1.4,3.51,'Not on time'
1,17,2,9853,1,1,141,Higher,Secondary,High-skilled,Clerical/service,130.2,1,0,0,1,0,0,19,0,12.7,3.7,-1.7,'Not on time'
1,44,1,9003,1,39,140,Basic,Basic,'Manual skilled',High-skilled,140,0,0,0,1,0,0,19,0,15.5,2.8,-4.06,'Not on time'
1,1,1,9119,1,1,163,Basic,Basic,Clerical/service,'Manual skilled',150.8,1,0,0,1,1,0,18,0,7.6,2.6,0.32,'Not on time'
1,1,1,9238,1,1,133,Basic,Secondary,High-skilled,Clerical/service,126,0,0,0,1,0,0,20,0,9.4,-0.8,-3.12,'Not on time'
1,39,1,9003,1,1,133.1,Basic,Basic,Clerical/service,'Manual skilled',115.6,1,0,0,0,0,0,27,0,15.5,2.8,-4.06,'Not on time'
1,1,4,9853,1,1,134,Basic,Secondary,Clerical/service,Low-skilled,127.4,1,0,0,1,0,0,18,0,10.8,1.4,1.74,'Not on time'
1,1,1,9070,1,1,133.1,Secondary,Basic,Clerical/service,Low-skilled,143,1,0,1,1,0,0,21,0,12.7,3.7,-1.7,'Not on time'
1,17,1,9254,1,1,122,Secondary,Secondary,Clerical/service,Low-skilled,112.9,1,0,0,1,0,0,22,0,7.6,2.6,0.32,'Not on time'
1,39,1,9991,0,1,130,Secondary,Basic,Clerical/service,Low-skilled,115,0,0,0,1,1,0,25,0,16.2,0.3,-0.92,'Not on time'
1,42,1,9070,1,1,100,Higher,Higher,High-skilled,High-skilled,115.9,0,0,0,1,0,0,29,0,9.4,-0.8,-3.12,'Not on time'
1,39,9,9991,0,1,120,Basic,Basic,Low-skilled,Clerical/service,144.8,0,0,0,1,1,0,28,0,10.8,1.4,1.74,'Not on time'
1,1,2,9254,1,1,120,Basic,Basic,Low-skilled,Low-skilled,115.1,1,0,0,0,1,0,21,0,9.4,-0.8,-3.12,'Not on time'
1,43,1,9070,1,1,150,Higher,Secondary,High-skilled,'Manual skilled',126.4,0,0,0,1,1,0,26,0,12.4,0.5,1.79,'Not on time'
1,7,1,9003,1,3,140,Higher,Basic,High-skilled,Other/unknown,140,0,0,0,0,1,0,35,0,15.5,2.8,-4.06,'Not on time'
2,39,1,9991,0,1,120,Basic,Basic,High-skilled,Low-skilled,132.9,0,0,0,1,1,0,32,0,13.9,-0.3,0.79,'Not on time'
2,39,1,9500,1,19,133.1,Basic,Basic,Low-skilled,'Manual skilled',100.5,1,0,0,1,1,0,43,0,10.8,1.4,1.74,'Not on time'
1,1,1,9254,1,1,133.1,Basic,Basic,High-skilled,High-skilled,97,0,0,0,1,1,0,27,0,10.8,1.4,1.74,'Not on time'
1,7,1,9003,1,3,130,Secondary,Basic,Clerical/service,Low-skilled,130,0,0,0,1,1,0,27,0,16.2,0.3,-0.92,'Not on time'
1,17,1,9773,1,1,145,Secondary,Basic,Other/unknown,'Manual skilled',132.8,1,0,0,0,1,0,21,0,10.8,1.4,1.74,'Not on time'
1,44,1,9070,1,39,123.9,Basic,Secondary,Low-skilled,'Manual skilled',123.9,0,0,0,1,1,0,20,0,16.2,0.3,-0.92,'Not on time'
1,17,1,9670,1,1,109,Secondary,Secondary,Clerical/service,Clerical/service,108,0,0,0,1,1,0,19,0,7.6,2.6,0.32,'Not on time'
1,1,2,9147,1,1,130,Basic,Basic,'Manual skilled',Low-skilled,117.8,0,0,1,1,0,1,19,0,12.7,3.7,-1.7,'Not on time'
1,17,2,9147,1,1,133,Basic,Secondary,Low-skilled,High-skilled,120.1,1,0,0,1,0,1,18,0,13.9,-0.3,0.79,'Not on time'
1,1,1,9130,1,1,144,Higher,Secondary,High-skilled,Clerical/service,134.9,1,0,1,1,0,0,18,0,15.5,2.8,-4.06,'Not on time'
2,39,1,9991,0,1,150,Basic,Basic,Low-skilled,'Manual skilled',122.5,0,0,0,1,1,0,47,0,7.6,2.6,0.32,'Not on time'
1,44,1,9085,1,39,110,Higher,Higher,High-skilled,High-skilled,110,0,0,0,1,1,0,23,0,13.9,-0.3,0.79,'Not on time'
1,39,1,8014,0,19,100,Basic,Basic,Clerical/service,Clerical/service,111,1,0,0,1,0,1,26,0,7.6,2.6,0.32,'Not on time'
1,1,4,9500,1,1,126,Secondary,Secondary,Clerical/service,Other/unknown,120.2,0,0,0,1,0,1,19,0,12.4,0.5,1.79,'Not on time'
1,1,1,9238,1,1,132,Basic,Basic,Low-skilled,'Manual skilled',129.9,1,0,0,1,0,0,20,0,10.8,1.4,1.74,'Not on time'
1,17,1,9147,1,1,115,Basic,Basic,Clerical/service,'Manual skilled',112.9,1,0,0,0,1,0,19,0,9.4,-0.8,-3.12,'Not on time'
1,1,1,9670,1,1,122,Secondary,Secondary,Clerical/service,'Manual skilled',126.6,1,0,0,1,0,0,18,0,11.1,0.6,2.02,'Not on time'
1,18,5,9085,1,1,121,Higher,Higher,High-skilled,High-skilled,111.9,1,0,0,1,0,0,21,0,12.7,3.7,-1.7,'Not on time'
1,17,1,171,1,1,130,Higher,Secondary,Low-skilled,Low-skilled,126.9,1,0,0,1,0,0,20,0,12.7,3.7,-1.7,'Not on time'
2,39,2,9147,1,1,140,Basic,Basic,Low-skilled,'Manual skilled',108,0,0,0,1,0,0,50,0,9.4,-0.8,-3.12,'Not on time'
2,39,2,9556,1,12,133.1,Unknown,Unknown,Other/unknown,Other/unknown,100.5,0,0,0,1,0,0,39,0,11.1,0.6,2.02,'Not on time'
1,17,1,9500,1,1,137,Secondary,Secondary,Low-skilled,Low-skilled,127.9,1,0,0,1,0,1,18,0,11.1,0.6,2.02,'Not on time'
2,39,1,9147,1,1,110,Basic,Basic,Low-skilled,Other/unknown,140,0,0,0,1,0,0,41,0,9.4,-0.8,-3.12,'Not on time'
1,39,1,9556,1,1,133.1,Higher,Higher,Clerical/service,Clerical/service,169.2,0,0,1,0,0,0,54,1,12.4,0.5,1.79,'Not on time'
2,39,1,9991,0,1,133.1,Basic,Basic,Low-skilled,Low-skilled,113.4,0,0,0,1,0,0,33,0,12.4,0.5,1.79,'Not on time'
2,7,1,8014,0,3,170,Basic,Basic,Clerical/service,Clerical/service,170,0,0,0,1,0,0,27,0,9.4,-0.8,-3.12,'Not on time'
6,39,2,9147,1,1,133.1,Basic,Basic,Low-skilled,Low-skilled,110,0,0,0,1,0,0,47,0,9.4,-0.8,-3.12,'Not on time'
2,39,1,9238,1,19,133.1,Basic,Basic,Clerical/service,Clerical/service,98.5,0,0,0,1,0,0,48,0,15.5,2.8,-4.06,'Not on time'
1,1,1,9130,1,1,132,Secondary,Secondary,Other/unknown,Clerical/service,119.1,1,0,1,1,0,0,29,0,10.8,1.4,1.74,'Not on time'
1,43,5,9853,1,1,150,Unknown,Unknown,Other/unknown,Other/unknown,150.2,1,0,0,0,0,0,28,0,9.4,-0.8,-3.12,'Not on time'
1,44,1,9853,1,39,150,Higher,Basic,High-skilled,'Manual skilled',150,0,0,0,1,0,0,19,0,12.4,0.5,1.79,'Not on time'
2,39,1,9853,1,19,133.1,Basic,Basic,High-skilled,'Manual skilled',100,0,0,0,1,0,0,45,0,7.6,2.6,0.32,'Not on time'
1,5,1,9085,1,1,150,Secondary,Secondary,Clerical/service,Clerical/service,139.4,0,0,0,1,0,0,18,0,7.6,2.6,0.32,'Not on time'
1,1,2,9254,1,1,137,Basic,Basic,Low-skilled,'Manual skilled',125.1,1,0,0,1,0,0,18,0,7.6,2.6,0.32,'Not on time'
1,1,3,9773,1,1,136,Higher,Secondary,Clerical/service,High-skilled,129,1,0,0,1,0,1,19,0,13.9,-0.3,0.79,'Not on time'
1,1,6,9500,1,1,142,Secondary,Basic,'Manual skilled','Manual skilled',123.5,1,0,0,1,0,0,19,0,12.7,3.7,-1.7,'Not on time'
1,1,2,9500,1,1,135,Higher,Higher,High-skilled,High-skilled,123,1,0,0,0,0,0,19,0,12.7,3.7,-1.7,'Not on time'
1,1,4,9773,1,1,137,Basic,Basic,Other/unknown,Other/unknown,134.2,1,0,0,1,0,0,18,0,10.8,1.4,1.74,'Not on time'
1,1,1,8014,0,1,126,Unknown,Unknown,Other/unknown,Other/unknown,142.4,0,0,0,1,0,0,32,0,7.6,2.6,0.32,'Not on time'
1,1,3,9500,1,1,140,Higher,Higher,Clerical/service,High-skilled,124.3,1,0,0,1,0,0,19,1,12.4,0.5,1.79,'Not on time'
1,39,1,9119,1,1,130,Basic,Basic,Low-skilled,Clerical/service,149,1,0,0,1,1,0,33,0,7.6,2.6,0.32,'Not on time'
1,44,1,9085,1,39,160,Secondary,Basic,Clerical/service,'Manual skilled',160,1,0,0,1,1,0,23,0,12.4,0.5,1.79,'Not on time'
1,17,2,9254,1,1,130,Basic,Basic,'Manual skilled','Manual skilled',121.6,1,0,0,1,0,1,18,0,12.7,3.7,-1.7,'Not on time'
1,1,1,171,1,1,180,Basic,Basic,Low-skilled,Low-skilled,152.7,1,0,1,0,1,0,27,1,7.6,2.6,0.32,'Not on time'
1,1,1,9670,1,1,143,Higher,Basic,High-skilled,Low-skilled,144.1,1,0,0,1,0,0,19,0,10.8,1.4,1.74,'Not on time'
1,17,1,9238,1,1,126,Basic,Basic,Low-skilled,'Manual skilled',116.9,1,0,0,1,0,0,21,0,12.7,3.7,-1.7,'Not on time'
1,1,5,9500,1,1,101,Secondary,Secondary,High-skilled,Clerical/service,102.4,0,0,0,1,0,0,20,0,12.4,0.5,1.79,'Not on time'
1,1,2,9147,1,1,130,Basic,Basic,Low-skilled,Low-skilled,117.8,0,0,0,1,0,0,18,0,7.6,2.6,0.32,'Not on time'
1,39,1,9991,0,1,150,Basic,Basic,Low-skilled,'Manual skilled',140.9,0,1,0,1,0,0,24,0,10.8,1.4,1.74,'Not on time'
2,39,1,33,1,1,120,Basic,Secondary,Low-skilled,Clerical/service,153.8,0,0,1,1,1,0,35,0,11.1,0.6,2.02,'Not on time'
1,17,2,9119,1,1,116,Basic,Secondary,Low-skilled,'Manual skilled',112.2,0,0,0,1,1,0,19,0,16.2,0.3,-0.92,'Not on time'
1,39,1,9003,1,1,130,Basic,Basic,Low-skilled,Clerical/service,100,0,0,0,0,1,0,29,0,13.9,-0.3,0.79,'Not on time'
1,17,2,9773,1,1,120,Secondary,Secondary,High-skilled,Clerical/service,127,1,0,0,0,1,0,18,0,8.9,1.4,3.51,'Not on time'
1,17,1,9773,1,1,125,Higher,Higher,High-skilled,High-skilled,118,1,0,0,1,1,0,19,0,13.9,-0.3,0.79,'Not on time'
1,1,1,171,1,1,124,Higher,Higher,High-skilled,High-skilled,118.4,1,0,0,1,1,0,18,0,7.6,2.6,0.32,'Not on time'
1,17,3,9670,1,1,147,Basic,Basic,'Manual skilled','Manual skilled',128.8,0,0,1,1,0,0,19,0,9.4,-0.8,-3.12,'Not on time'
2,39,1,9147,1,1,130,Basic,Basic,Low-skilled,Low-skilled,142.5,0,0,0,1,0,0,39,0,11.1,0.6,2.02,'Not on time'
1,17,3,9853,1,1,140,Basic,Basic,Clerical/service,'Manual skilled',126.7,1,0,0,1,0,0,19,0,10.8,1.4,1.74,'Not on time'
1,39,1,8014,0,1,100,Secondary,Higher,Low-skilled,Clerical/service,116.5,0,0,1,0,0,0,37,0,8.9,1.4,3.51,'Not on time'
2,1,1,9254,1,1,136,Basic,Basic,Low-skilled,Low-skilled,122.7,0,0,0,1,0,1,45,0,7.6,2.6,0.32,'Not on time'
2,7,1,8014,0,3,130,Basic,Basic,Other/unknown,Other/unknown,140,0,0,0,0,0,0,59,0,10.8,1.4,1.74,'Not on time'
1,1,1,9238,1,1,125,Secondary,Secondary,Clerical/service,Clerical/service,128.5,0,0,0,1,1,0,20,0,16.2,0.3,-0.92,'Not on time'
1,17,2,9500,1,1,126,Basic,Basic,'Manual skilled','Manual skilled',126.2,1,0,0,1,0,1,18,0,11.1,0.6,2.02,'Not on time'
1,1,2,9085,1,1,156,Higher,Higher,High-skilled,'Manual skilled',150.9,1,0,0,1,0,0,18,0,11.1,0.6,2.02,'Not on time'
1,43,1,9991,0,1,120,Basic,Basic,Low-skilled,Low-skilled,115.8,0,0,1,0,1,0,28,0,12.7,3.7,-1.7,'Not on time'
1,1,1,171,1,1,123,Secondary,Higher,High-skilled,High-skilled,118.8,0,0,0,1,1,0,19,0,8.9,1.4,3.51,'Not on time'
1,17,1,9119,1,1,126,Secondary,Secondary,Low-skilled,Low-skilled,116.2,0,0,1,0,1,0,21,0,7.6,2.6,0.32,'Not on time'
1,39,1,9085,1,1,133.1,Basic,Basic,Other/unknown,'Manual skilled',128.2,0,0,0,1,1,0,28,0,7.6,2.6,0.32,'Not on time'
1,39,1,9085,1,1,110,Higher,Secondary,Clerical/service,'Manual skilled',142.5,0,0,1,0,1,0,37,0,8.9,1.4,3.51,'Not on time'
1,1,1,8014,0,1,123,Higher,Secondary,High-skilled,Low-skilled,127.6,1,0,0,1,1,0,26,0,10.8,1.4,1.74,'Not on time'
1,43,1,9003,1,1,120,Higher,Higher,High-skilled,High-skilled,115,0,0,0,1,1,0,22,0,16.2,0.3,-0.92,'Not on time'
1,17,3,9853,1,1,132,Unknown,Unknown,Other/unknown,Other/unknown,131.3,1,0,0,1,0,0,21,0,7.6,2.6,0.32,'Not on time'
1,7,1,9147,1,3,130,Basic,Basic,Low-skilled,Low-skilled,130,0,0,0,1,0,0,25,0,12.7,3.7,-1.7,'Not on time'
1,1,1,9085,1,1,127,Basic,Basic,Low-skilled,Low-skilled,122.8,1,0,0,1,0,0,19,0,12.7,3.7,-1.7,'Not on time'
2,43,1,9991,0,1,134,Basic,Basic,Low-skilled,Low-skilled,113.7,0,0,0,1,0,0,32,0,9.4,-0.8,-3.12,'Not on time'
1,1,4,9500,1,1,137,Secondary,Basic,Clerical/service,'Manual skilled',126.7,1,0,0,1,0,0,18,0,15.5,2.8,-4.06,'Not on time'
1,17,1,9238,1,1,137,Secondary,Basic,Clerical/service,'Manual skilled',125.8,0,0,0,0,0,1,18,0,12.7,3.7,-1.7,'Not on time'
1,43,1,8014,0,1,117,Basic,Basic,Low-skilled,Low-skilled,100,0,0,0,1,0,0,27,0,13.9,-0.3,0.79,'Not on time'
1,17,2,9556,1,1,133.1,Basic,Basic,Low-skilled,'Manual skilled',106,1,0,0,1,0,0,19,0,8.9,1.4,3.51,'Not on time'
1,39,1,9991,0,1,130,Basic,Basic,Low-skilled,Low-skilled,151.6,0,0,0,1,0,0,24,0,16.2,0.3,-0.92,'Not on time'
1,7,1,9085,1,3,120,Basic,Basic,'Manual skilled','Manual skilled',120,0,0,0,1,0,0,32,0,15.5,2.8,-4.06,'Not on time'
1,1,5,9500,1,1,135,Basic,Basic,'Manual skilled','Manual skilled',124,1,0,0,1,0,1,19,0,9.4,-0.8,-3.12,'Not on time'
1,39,1,9238,1,1,160,Basic,Secondary,Low-skilled,High-skilled,124,0,0,1,1,1,0,28,0,10.8,1.4,1.74,'Not on time'
1,1,1,9670,1,1,130,Secondary,Secondary,Other/unknown,Other/unknown,119.5,0,0,0,0,1,0,19,0,9.4,-0.8,-3.12,'Not on time'
1,7,1,9119,1,3,130,Basic,Basic,Low-skilled,Low-skilled,130,0,0,0,0,1,0,33,0,12.7,3.7,-1.7,'Not on time'
1,39,1,9070,1,1,140,Basic,Basic,Low-skilled,Other/unknown,118,0,0,1,1,1,1,45,0,16.2,0.3,-0.92,'Not on time'
1,44,1,9130,1,39,140,Secondary,Basic,Clerical/service,'Manual skilled',140,0,0,0,1,1,0,20,0,13.9,-0.3,0.79,'Not on time'
1,17,1,171,1,1,123,Higher,Secondary,High-skilled,Low-skilled,116.4,1,0,1,1,1,0,19,0,10.8,1.4,1.74,'Not on time'
1,43,4,9670,1,1,117,Higher,Higher,Clerical/service,Clerical/service,113.2,0,0,0,1,1,0,21,0,9.4,-0.8,-3.12,'Not on time'
1,1,1,9500,1,1,118,Secondary,Secondary,Clerical/service,Other/unknown,115.7,0,0,0,1,1,0,20,0,13.9,-0.3,0.79,'Not on time'
1,39,1,9991,0,1,110,Basic,Basic,Low-skilled,Low-skilled,139,0,0,0,1,1,0,40,0,12.7,3.7,-1.7,'Not on time'
1,39,1,9991,0,1,100,Basic,Basic,Low-skilled,Clerical/service,140,0,0,0,1,1,0,39,0,15.5,2.8,-4.06,'Not on time'
1,1,1,9500,1,1,135,Basic,Basic,Low-skilled,Low-skilled,135.4,1,0,0,1,1,0,21,0,11.1,0.6,2.02,'Not on time'
1,39,1,9254,1,12,133.1,Basic,Basic,Clerical/service,'Manual skilled',119.3,1,0,0,1,1,0,25,0,9.4,-0.8,-3.12,'Not on time'
1,44,1,9119,1,39,160,Higher,Basic,High-skilled,High-skilled,160,0,0,1,0,1,0,24,0,8.9,1.4,3.51,'Not on time'
1,1,2,9119,1,1,140,Basic,Basic,Low-skilled,Low-skilled,125.7,1,0,0,1,1,0,18,0,9.4,-0.8,-3.12,'Not on time'
1,39,1,33,1,1,133.1,Basic,Basic,Low-skilled,Low-skilled,96.1,0,0,0,1,1,0,25,0,12.4,0.5,1.79,'Not on time'
1,7,1,9670,1,3,110,Secondary,Basic,High-skilled,High-skilled,110,1,0,0,1,1,0,27,0,9.4,-0.8,-3.12,'Not on time'
1,43,1,9147,1,1,133.1,Higher,Basic,High-skilled,High-skilled,128.2,0,0,0,1,0,0,23,0,9.4,-0.8,-3.12,'Not on time'
1,17,1,9119,1,1,125,Basic,Secondary,Clerical/service,Clerical/service,121.5,1,0,0,1,1,0,20,0,11.1,0.6,2.02,'Not on time'
1,15,1,9119,1,1,133.1,Higher,Higher,High-skilled,High-skilled,100,0,0,1,1,1,0,24,1,8.9,1.4,3.51,'Not on time'
1,18,6,8014,0,1,134,Higher,Basic,High-skilled,Clerical/service,120.7,1,0,0,1,0,0,23,0,13.9,-0.3,0.79,'Not on time'
1,1,3,9773,1,1,117,Basic,Basic,'Manual skilled','Manual skilled',110.4,1,0,1,0,0,0,19,0,16.2,0.3,-0.92,'Not on time'
1,17,1,9238,1,1,135,Basic,Basic,'Manual skilled','Manual skilled',127,0,0,0,1,0,0,21,0,16.2,0.3,-0.92,'Not on time'
1,1,3,9238,1,1,124,Basic,Secondary,'Manual skilled',Other/unknown,116,1,0,1,1,0,0,19,0,13.9,-0.3,0.79,'Not on time'
1,1,2,9773,1,1,133,Basic,Basic,Clerical/service,Other/unknown,133.7,1,0,0,1,0,0,19,0,7.6,2.6,0.32,'Not on time'
1,43,1,9003,1,1,120,Secondary,Secondary,Clerical/service,Other/unknown,134.4,0,0,0,1,1,0,24,0,15.5,2.8,-4.06,'Not on time'
1,39,1,9670,1,1,140,Basic,Basic,'Manual skilled','Manual skilled',105.2,0,0,0,1,1,0,29,0,16.2,0.3,-0.92,'Not on time'
1,1,1,9085,1,1,123,Higher,Secondary,High-skilled,Clerical/service,112.9,0,0,0,1,1,0,18,0,7.6,2.6,0.32,'Not on time'
1,51,1,9147,1,1,148,Secondary,Basic,Low-skilled,'Manual skilled',118.4,1,0,0,1,1,0,30,0,8.9,1.4,3.51,'Not on time'
1,43,1,33,1,1,134,Basic,Basic,High-skilled,High-skilled,100,1,0,0,1,1,0,32,0,13.9,-0.3,0.79,'Not on time'
1,17,1,9670,1,1,141,Basic,Basic,Clerical/service,'Manual skilled',130.2,0,0,0,1,1,0,18,0,12.7,3.7,-1.7,'Not on time'
1,1,2,9670,1,1,122,Secondary,Secondary,Low-skilled,Low-skilled,116.1,1,0,0,1,1,1,18,0,9.4,-0.8,-3.12,'Not on time'
1,43,1,9147,1,1,129,Basic,Secondary,Low-skilled,Clerical/service,112,0,0,0,1,1,0,22,0,12.7,3.7,-1.7,'Not on time'
1,39,1,9119,1,1,133.1,Basic,Basic,Low-skilled,High-skilled,123,0,0,0,1,1,1,28,0,9.4,-0.8,-3.12,'Not on time'
1,18,4,9500,1,1,137,Higher,Secondary,High-skilled,Clerical/service,126.7,1,0,0,1,0,0,18,0,13.9,-0.3,0.79,'Not on time'
1,1,3,9853,1,1,122,Higher,Higher,High-skilled,High-skilled,112.6,1,0,0,1,0,0,23,0,7.6,2.6,0.32,'Not on time'
1,44,1,9085,1,39,160,Secondary,Secondary,Clerical/service,Clerical/service,160,1,0,0,1,0,0,23,0,12.4,0.5,1.79,'Not on time'
1,17,2,171,1,1,130,Secondary,Secondary,High-skilled,High-skilled,148.6,1,0,0,1,1,0,20,1,11.1,0.6,2.02,'Not on time'
1,18,1,9119,1,1,122,Basic,Secondary,Other/unknown,High-skilled,116.1,1,0,1,0,1,0,24,0,9.4,-0.8,-3.12,'Not on time'
1,17,1,9853,1,1,133.1,Unknown,Basic,Other/unknown,High-skilled,117.1,1,0,0,1,0,1,21,0,7.6,2.6,0.32,'Not on time'
1,43,1,9500,1,1,125,Basic,Basic,Low-skilled,'Manual skilled',123.6,1,0,0,1,0,1,18,0,7.6,2.6,0.32,'Not on time'
1,39,1,9254,1,1,100,Higher,Basic,High-skilled,Clerical/service,115,0,0,0,0,1,0,24,0,11.1,0.6,2.02,'Not on time'
1,1,1,171,1,1,130,Secondary,Basic,'Manual skilled','Manual skilled',135.6,1,0,0,1,1,0,26,0,11.1,0.6,2.02,'Not on time'
1,43,1,9070,1,1,100,Basic,Basic,Low-skilled,Low-skilled,108,1,0,0,1,1,0,34,0,7.6,2.6,0.32,'Not on time'
1,1,1,9147,1,1,115,Basic,Secondary,Low-skilled,'Manual skilled',118.5,0,0,0,1,1,0,21,0,7.6,2.6,0.32,'Not on time'
1,16,2,9147,1,1,131,Basic,Basic,Low-skilled,Low-skilled,135.9,1,0,0,1,1,0,20,0,7.6,2.6,0.32,'Not on time'
1,43,1,9991,0,1,120,Basic,Basic,Low-skilled,Low-skilled,107,0,0,0,0,1,0,47,0,12.7,3.7,-1.7,'Not on time'
1,1,1,9670,1,1,116,Basic,Basic,Other/unknown,High-skilled,116.7,1,0,0,1,1,0,21,0,9.4,-0.8,-3.12,'Not on time'
1,17,2,9773,1,1,150,Secondary,Secondary,Clerical/service,Clerical/service,130.8,0,0,0,1,1,0,20,0,10.8,1.4,1.74,'Not on time'
1,43,1,9500,1,19,133.1,Unknown,Unknown,Other/unknown,Other/unknown,110,1,0,0,1,1,0,27,0,7.6,2.6,0.32,'Not on time'
1,18,1,9853,1,1,133.1,Secondary,Basic,Clerical/service,'Manual skilled',106,1,0,1,1,0,0,21,0,8.9,1.4,3.51,'Not on time'
2,7,1,9147,1,3,120,Basic,Basic,Low-skilled,Low-skilled,120,0,0,0,1,0,0,33,0,10.8,1.4,1.74,'Not on time'
1,1,1,9238,1,1,157,Higher,Basic,High-skilled,Clerical/service,136.7,1,0,0,1,0,0,22,0,9.4,-0.8,-3.12,'Not on time'
1,1,1,171,1,1,125,Basic,Basic,Clerical/service,Clerical/service,136.2,1,0,1,1,1,0,21,0,8.9,1.4,3.51,'Not on time'
1,18,3,9670,1,1,119,Basic,Basic,Low-skilled,Low-skilled,115.2,1,0,0,1,0,1,19,0,12.7,3.7,-1.7,'Not on time'
1,39,1,9853,1,19,133.1,Basic,Higher,Low-skilled,Clerical/service,116,1,0,0,1,0,0,29,0,11.1,0.6,2.02,'Not on time'
1,7,1,9147,1,3,150,Secondary,Secondary,High-skilled,'Manual skilled',150,0,0,0,1,0,0,26,0,9.4,-0.8,-3.12,'Not on time'
1,44,1,9003,1,39,140,Basic,Basic,Low-skilled,Clerical/service,140,0,0,0,1,0,0,21,0,15.5,2.8,-4.06,'Not on time'
2,39,1,9991,0,1,133.1,Basic,Basic,Low-skilled,Low-skilled,126.5,0,0,0,1,0,0,27,0,7.6,2.6,0.32,'Not on time'
1,42,1,9119,1,1,140,Higher,Higher,High-skilled,High-skilled,133.6,1,0,0,1,1,0,22,0,10.8,1.4,1.74,'Not on time'
1,39,1,9556,1,19,133.1,Basic,Basic,Low-skilled,Other/unknown,100,0,0,0,1,1,0,31,0,15.5,2.8,-4.06,'Not on time'
4,39,1,8014,0,1,133.1,Basic,Basic,Low-skilled,'Manual skilled',140,0,0,0,1,0,1,43,0,8.9,1.4,3.51,'Not on time'
1,1,6,9500,1,1,139,Basic,Basic,Clerical/service,Low-skilled,128.5,1,0,0,1,0,0,19,0,12.7,3.7,-1.7,'Not on time'
2,7,1,9130,1,2,110,Basic,Basic,Clerical/service,'Manual skilled',110,1,0,0,1,1,0,37,0,16.2,0.3,-0.92,'Not on time'
1,1,1,9254,1,1,122,Basic,Basic,Low-skilled,Low-skilled,114.3,1,0,0,0,0,1,20,0,7.6,2.6,0.32,'Not on time'
1,17,1,171,1,1,146,Secondary,Basic,Low-skilled,Low-skilled,135.5,1,0,1,1,0,0,22,0,11.1,0.6,2.02,'Not on time'
1,17,3,9085,1,1,117,Basic,Basic,Clerical/service,'Manual skilled',111.1,0,0,0,1,0,0,21,0,15.5,2.8,-4.06,'Not on time'
1,17,3,9254,1,1,115,Basic,Basic,Clerical/service,Clerical/service,109.8,1,0,0,1,0,0,19,0,10.8,1.4,1.74,'Not on time'
2,43,1,8014,0,14,133.1,Unknown,Unknown,Other/unknown,Other/unknown,100,0,0,0,0,0,0,34,0,9.4,-0.8,-3.12,'Not on time'
1,43,1,9556,1,1,149,Secondary,Secondary,Clerical/service,'Manual skilled',140.2,1,1,0,1,0,0,20,0,12.7,3.7,-1.7,'Not on time'
1,1,1,9085,1,1,145,Basic,Basic,High-skilled,Low-skilled,138.4,1,0,0,0,0,0,18,0,8.9,1.4,3.51,'Not on time'
1,1,1,9254,1,1,118,Basic,Basic,'Manual skilled','Manual skilled',114.2,0,0,0,1,0,0,18,0,16.2,0.3,-0.92,'Not on time'
1,43,1,9556,1,1,128,Basic,Basic,'Manual skilled','Manual skilled',123.5,1,0,0,1,0,0,22,0,12.7,3.7,-1.7,'Not on time'
1,1,1,171,1,1,135,Basic,Higher,Low-skilled,High-skilled,143.8,1,0,1,1,0,0,19,0,12.7,3.7,-1.7,'Not on time'
4,43,1,9853,1,1,133.1,Basic,Secondary,Other/unknown,Other/unknown,100,0,0,0,1,0,0,33,1,7.6,2.6,0.32,'Not on time'
1,1,1,9238,1,1,135,Basic,Basic,Clerical/service,'Manual skilled',121.7,1,0,0,1,0,1,18,0,7.6,2.6,0.32,'Not on time'
1,39,1,9556,1,1,133.1,Higher,Higher,High-skilled,High-skilled,115.5,0,0,0,1,0,0,36,0,11.1,0.6,2.02,'Not on time'
1,17,2,9853,1,1,150,Basic,Basic,Clerical/service,'Manual skilled',132.5,1,0,0,1,0,0,22,0,10.8,1.4,1.74,'Not on time'
1,1,1,171,1,1,152,Secondary,Basic,Clerical/service,Low-skilled,160.4,1,0,0,0,0,0,19,0,7.6,2.6,0.32,'Not on time'
1,17,2,8014,0,1,133,Basic,Secondary,Clerical/service,Clerical/service,119.7,1,0,0,1,0,1,19,0,9.4,-0.8,-3.12,'Not on time'
1,1,2,9147,1,1,113,Basic,Basic,Low-skilled,Clerical/service,107.4,1,0,0,1,1,0,20,0,12.4,0.5,1.79,'Not on time'
1,17,1,9238,1,1,111,Basic,Basic,High-skilled,High-skilled,111.4,1,0,0,0,0,0,19,0,12.7,3.7,-1.7,'Not on time'
2,39,1,9500,1,3,130,Secondary,Secondary,Clerical/service,'Manual skilled',140,0,0,1,0,0,0,30,0,13.9,-0.3,0.79,'Not on time'
1,7,1,8014,0,4,120,Higher,Higher,High-skilled,High-skilled,120,0,0,0,1,0,0,18,0,15.5,2.8,-4.06,'Not on time'
2,39,1,9991,0,12,133.1,Basic,Secondary,Low-skilled,Clerical/service,138.4,0,0,0,1,1,0,30,0,7.6,2.6,0.32,'Not on time'
1,17,2,9085,1,1,123,Higher,Basic,High-skilled,Low-skilled,118.9,0,0,0,1,1,0,18,0,7.6,2.6,0.32,'Not on time'
1,17,1,9254,1,1,133,Basic,Secondary,Low-skilled,Low-skilled,137.2,0,0,0,1,1,1,20,0,10.8,1.4,1.74,'Not on time'
1,39,2,9556,1,1,130,Basic,Basic,Low-skilled,'Manual skilled',110,0,0,0,1,1,1,24,0,12.7,3.7,-1.7,'Not on time'
1,39,1,9991,0,39,150,Basic,Basic,Low-skilled,Low-skilled,150.3,0,0,0,1,1,0,24,0,10.8,1.4,1.74,'Not on time'
1,1,1,9147,1,1,148,Basic,Secondary,'Manual skilled',Clerical/service,138.3,1,0,0,1,1,0,19,0,12.4,0.5,1.79,'Not on time'
1,1,6,9119,1,1,135,Higher,Secondary,High-skilled,Clerical/service,123.5,1,0,0,1,1,0,18,0,7.6,2.6,0.32,'Not on time'
4,39,1,9991,0,1,147,Basic,Basic,'Manual skilled','Manual skilled',147.9,0,0,0,1,0,0,28,0,10.8,1.4,1.74,'Not on time'
2,43,2,9853,1,1,130,Basic,Secondary,Clerical/service,High-skilled,124.2,0,0,0,1,0,0,31,0,9.4,-0.8,-3.12,'Not on time'
1,1,2,9773,1,1,129,Basic,Basic,Low-skilled,'Manual skilled',117.1,1,0,0,1,0,0,20,0,9.4,-0.8,-3.12,'Not on time'
1,17,2,9254,1,1,107,Secondary,Basic,Clerical/service,Clerical/service,102.8,1,0,0,1,0,0,20,0,10.8,1.4,1.74,'Not on time'
1,39,1,8014,0,1,133.1,Basic,Basic,'Manual skilled','Manual skilled',120,0,0,1,0,0,0,31,0,11.1,0.6,2.02,'Not on time'
1,1,1,9500,1,1,136,Higher,Higher,High-skilled,High-skilled,120,1,0,0,1,1,0,18,0,7.6,2.6,0.32,'Not on time'
1,39,1,9991,0,1,110,Basic,Basic,'Manual skilled','Manual skilled',133.9,0,0,0,1,0,0,30,0,10.8,1.4,1.74,'Not on time'
1,17,1,9670,1,1,118,Basic,Basic,'Manual skilled','Manual skilled',115.2,1,0,0,1,0,1,21,0,7.6,2.6,0.32,'Not on time'
1,17,3,9773,1,1,153,Unknown,Unknown,Other/unknown,Other/unknown,133.1,1,0,1,1,0,1,19,0,9.4,-0.8,-3.12,'Not on time'
2,39,1,9130,1,19,133.1,Higher,Secondary,'Manual skilled','Manual skilled',120,1,0,1,0,1,0,28,0,16.2,0.3,-0.92,'Not on time'
1,43,1,33,1,1,143,Basic,Secondary,Low-skilled,Other/unknown,121.2,1,0,0,1,1,0,25,0,12.4,0.5,1.79,'Not on time'
1,18,2,9556,1,1,126,Higher,Higher,High-skilled,High-skilled,115.5,0,0,0,1,1,0,18,0,8.9,1.4,3.51,Graduate
1,1,2,9500,1,1,99,Secondary,Higher,Clerical/service,Other/unknown,100,1,0,0,1,1,0,19,0,13.9,-0.3,0.79,Graduate
1,1,1,9670,1,1,116,Higher,Higher,High-skilled,High-skilled,110.1,1,0,0,1,1,0,19,0,12.4,0.5,1.79,Graduate
1,18,6,9500,1,1,124,Basic,Basic,Low-skilled,'Manual skilled',117.8,0,0,0,1,0,1,20,0,10.8,1.4,1.74,Graduate
1,1,1,9238,1,1,132,Unknown,Unknown,Other/unknown,Other/unknown,119.1,1,0,0,1,0,0,18,0,7.6,2.6,0.32,Graduate
1,1,1,9500,1,1,143,Basic,Basic,Clerical/service,Clerical/service,133.9,0,0,0,1,0,0,18,0,12.4,0.5,1.79,Graduate
1,18,6,9500,1,1,141,Secondary,Basic,High-skilled,High-skilled,126.7,1,0,0,1,0,1,18,0,12.7,3.7,-1.7,Graduate
1,1,2,9500,1,1,149,Basic,Basic,Low-skilled,Low-skilled,126.5,1,0,0,1,0,0,18,0,12.7,3.7,-1.7,Graduate
1,17,1,9853,1,1,126,Secondary,Basic,'Manual skilled',Low-skilled,132.7,0,0,0,1,0,1,18,0,10.8,1.4,1.74,Graduate
1,1,4,171,1,1,133.1,Secondary,Secondary,Low-skilled,Other/unknown,110,1,0,0,1,0,0,20,0,16.2,0.3,-0.92,Graduate
1,1,1,9500,1,1,140,Secondary,Secondary,Clerical/service,Clerical/service,123.5,1,0,0,1,0,1,19,0,9.4,-0.8,-3.12,Graduate
1,17,2,9070,1,1,133.1,Basic,Basic,Low-skilled,Other/unknown,178,1,0,0,1,1,1,23,0,9.4,-0.8,-3.12,Graduate
2,39,1,8014,0,19,133.1,Basic,Basic,'Manual skilled','Manual skilled',139,0,0,0,1,1,0,49,0,12.4,0.5,1.79,Graduate
1,1,2,9254,1,1,120,Basic,Basic,Low-skilled,Low-skilled,116.5,1,0,0,1,0,1,19,0,12.4,0.5,1.79,Graduate
1,39,1,9991,0,1,120,Basic,Basic,'Manual skilled','Manual skilled',160,0,0,0,1,1,0,40,0,15.5,2.8,-4.06,Graduate
1,1,1,9238,1,1,127,Basic,Basic,Clerical/service,Other/unknown,125.3,0,0,0,1,1,0,19,0,7.6,2.6,0.32,Graduate
1,17,1,9130,1,1,130,Secondary,Secondary,Clerical/service,Clerical/service,123.8,0,0,0,1,0,0,18,0,7.6,2.6,0.32,Graduate
1,17,1,9254,1,1,122,Secondary,Basic,Clerical/service,High-skilled,130.4,1,0,0,1,0,0,18,0,11.1,0.6,2.02,Graduate
1,1,1,9773,1,1,135,Secondary,Higher,Clerical/service,High-skilled,124.9,0,0,0,1,0,1,20,0,10.8,1.4,1.74,Graduate
1,1,1,9500,1,1,140,Secondary,Basic,Low-skilled,Low-skilled,128.8,0,0,0,1,1,0,18,0,12.4,0.5,1.79,Graduate
1,18,1,9147,1,1,121,Basic,Higher,Clerical/service,Clerical/service,115.8,1,0,0,1,0,1,19,0,12.4,0.5,1.79,Graduate
1,1,3,9500,1,1,135,Basic,Basic,'Manual skilled','Manual skilled',126.3,1,0,1,1,0,1,18,0,15.5,2.8,-4.06,Graduate
1,1,5,9500,1,1,126,Secondary,Basic,'Manual skilled','Manual skilled',115.5,1,0,0,1,0,1,19,0,12.4,0.5,1.79,Graduate
1,18,1,9500,1,1,124,Basic,Basic,Low-skilled,'Manual skilled',119.3,1,0,0,1,0,0,19,0,9.4,-0.8,-3.12,Graduate
1,1,1,9500,1,1,138,Basic,Basic,Low-skilled,Clerical/service,144.3,0,0,0,1,0,0,20,0,13.9,-0.3,0.79,Graduate
1,42,1,9500,1,1,100,Secondary,Basic,Clerical/service,'Manual skilled',136,1,0,0,1,0,0,21,0,15.5,2.8,-4.06,Graduate
1,44,1,9003,1,39,160,Basic,Basic,Low-skilled,Low-skilled,160,0,0,1,1,0,1,19,0,15.5,2.8,-4.06,Graduate
1,44,1,9130,1,39,150,Higher,Secondary,High-skilled,'Manual skilled',150,1,0,0,1,1,0,22,0,16.2,0.3,-0.92,Graduate
1,1,1,171,1,1,138,Secondary,Secondary,Clerical/service,High-skilled,141.5,0,0,0,1,1,0,19,0,7.6,2.6,0.32,Graduate
5,17,5,9500,1,1,143,Basic,Basic,Clerical/service,'Manual skilled',133.5,1,0,0,1,0,1,18,0,12.7,3.7,-1.7,Graduate
1,39,2,9670,1,1,140,Unknown,Unknown,Other/unknown,Other/unknown,100,0,0,0,1,0,0,28,0,7.6,2.6,0.32,Graduate
1,1,5,171,1,1,139,Basic,Higher,Low-skilled,High-skilled,136.9,1,0,0,1,1,1,19,0,9.4,-0.8,-3.12,Graduate
1,39,1,9147,1,1,150,Basic,Secondary,'Manual skilled',High-skilled,148.8,0,0,0,1,1,1,25,0,12.7,3.7,-1.7,Graduate
1,1,3,9070,1,1,127,Basic,Basic,Clerical/service,'Manual skilled',141,1,0,0,1,1,1,19,0,12.4,0.5,1.79,Graduate
1,1,2,8014,0,1,107,Basic,Basic,Other/unknown,Other/unknown,103.5,1,0,0,1,0,0,22,0,7.6,2.6,0.32,Graduate
1,1,1,9500,1,1,148,Basic,Basic,Clerical/service,Clerical/service,133.8,0,0,0,1,0,0,18,0,12.7,3.7,-1.7,Graduate
1,18,3,9085,1,1,149,Secondary,Secondary,Low-skilled,Low-skilled,132.2,1,0,0,1,0,1,18,1,10.8,1.4,1.74,Graduate
2,39,1,9991,0,1,140,Basic,Basic,Low-skilled,Low-skilled,118.2,0,0,0,1,1,0,52,0,7.6,2.6,0.32,Graduate
2,39,1,171,1,12,110,Basic,Basic,'Manual skilled','Manual skilled',106,1,0,0,1,1,0,36,0,7.6,2.6,0.32,Graduate
1,17,3,9500,1,1,139,Basic,Secondary,Low-skilled,Clerical/service,131.8,1,0,0,1,0,0,18,0,10.8,1.4,1.74,Graduate
1,39,1,8014,0,40,140,Basic,Basic,Clerical/service,Low-skilled,148,0,0,0,1,0,0,37,0,12.4,0.5,1.79,Graduate
1,1,1,9254,1,1,123,Secondary,Basic,Low-skilled,Low-skilled,132.1,0,0,0,1,0,1,21,0,15.5,2.8,-4.06,Graduate
1,1,1,9238,1,1,142,Basic,Basic,'Manual skilled','Manual skilled',136.1,1,0,0,1,0,0,18,0,13.9,-0.3,0.79,Graduate
1,1,1,9991,0,1,172,Basic,Basic,Low-skilled,Low-skilled,149.3,0,0,0,1,1,1,24,0,8.9,1.4,3.51,Graduate
1,39,1,9003,1,1,130,Secondary,Higher,High-skilled,'Manual skilled',110,0,0,0,1,1,0,32,0,15.5,2.8,-4.06,Graduate
1,1,3,9500,1,1,133.1,Basic,Basic,Clerical/service,Clerical/service,108.5,1,0,0,1,0,0,19,0,12.4,0.5,1.79,Graduate
1,17,1,9254,1,1,127,Higher,Basic,Clerical/service,Clerical/service,116.9,0,0,0,1,1,0,21,0,15.5,2.8,-4.06,Graduate
1,17,1,9500,1,1,141,Basic,Basic,'Manual skilled',Other/unknown,139.8,1,0,0,1,0,0,18,0,9.4,-0.8,-3.12,Graduate
1,39,1,9070,1,1,110,Basic,Basic,'Manual skilled','Manual skilled',110.2,0,0,0,1,1,0,55,0,11.1,0.6,2.02,Graduate
1,1,1,9085,1,1,131,Basic,Basic,Low-skilled,Low-skilled,139.8,1,0,0,1,0,0,19,0,10.8,1.4,1.74,Graduate
2,39,1,8014,0,19,133.1,Basic,Basic,Clerical/service,'Manual skilled',112.5,0,0,0,1,0,0,32,0,9.4,-0.8,-3.12,Graduate
1,43,2,9500,1,1,120,Basic,Unknown,Other/unknown,Other/unknown,121.5,0,0,1,1,0,0,22,0,7.6,2.6,0.32,Graduate
1,43,2,9500,1,1,130,Basic,Basic,Clerical/service,Clerical/service,126.8,1,0,0,1,1,1,28,0,7.6,2.6,0.32,Graduate
1,1,1,9070,1,1,140,Basic,Basic,Clerical/service,Clerical/service,131.3,0,0,0,1,1,1,22,0,12.4,0.5,1.79,Graduate
1,7,1,9500,1,3,130,Basic,Basic,Clerical/service,High-skilled,130,0,0,0,1,0,0,23,0,9.4,-0.8,-3.12,Graduate
1,1,2,9500,1,1,140,Secondary,Secondary,Clerical/service,Other/unknown,128.3,1,0,0,1,0,0,19,0,10.8,1.4,1.74,Graduate
1,1,1,171,1,1,149,Basic,Basic,Low-skilled,Low-skilled,158.1,1,0,0,1,1,1,20,0,10.8,1.4,1.74,Graduate
2,39,1,8014,0,12,133.1,Basic,Basic,Low-skilled,High-skilled,113,0,0,0,1,0,0,46,0,11.1,0.6,2.02,Graduate
1,1,1,9556,1,1,123,Basic,Basic,Clerical/service,Low-skilled,113.8,1,0,0,1,0,0,18,0,12.7,3.7,-1.7,Graduate
1,1,3,9500,1,1,137,Basic,Basic,'Manual skilled','Manual skilled',126.5,1,0,0,1,0,1,19,0,9.4,-0.8,-3.12,Graduate
1,17,1,9070,1,1,137,Secondary,Secondary,High-skilled,Clerical/service,131.8,0,0,0,1,0,1,22,0,9.4,-0.8,-3.12,Graduate
1,1,2,9254,1,1,131,Higher,Higher,'Manual skilled',Clerical/service,126.1,1,0,0,1,0,0,18,0,8.9,1.4,3.51,Graduate
1,1,3,9254,1,1,121,Basic,Basic,Clerical/service,'Manual skilled',116.8,1,0,0,1,0,0,21,0,11.1,0.6,2.02,Graduate
1,44,1,9003,1,39,160,Basic,Basic,Low-skilled,'Manual skilled',160,0,0,0,1,0,1,20,0,16.2,0.3,-0.92,Graduate
1,7,1,9500,1,3,130,Basic,Basic,Clerical/service,Other/unknown,130,1,0,0,1,0,0,23,0,7.6,2.6,0.32,Graduate
1,17,6,9500,1,1,150,Secondary,Basic,High-skilled,High-skilled,131.5,1,0,0,1,0,0,19,0,10.8,1.4,1.74,Graduate
1,1,1,9238,1,1,135,Basic,Basic,Low-skilled,Clerical/service,135,1,0,0,1,0,0,20,0,10.8,1.4,1.74,Graduate
1,44,1,9003,1,39,150,Basic,Basic,Low-skilled,Low-skilled,150,1,0,0,1,1,0,20,0,16.2,0.3,-0.92,Graduate
1,15,1,9147,1,1,130,Secondary,Secondary,High-skilled,High-skilled,130,0,0,0,1,0,0,19,1,11.1,0.6,2.02,Graduate
1,1,3,9500,1,1,143,Basic,Basic,'Manual skilled','Manual skilled',127,1,0,0,1,0,0,18,0,9.4,-0.8,-3.12,Graduate
1,17,1,9500,1,1,142,Basic,Secondary,Clerical/service,Clerical/service,136.6,0,0,0,1,0,1,18,0,12.4,0.5,1.79,Graduate
1,1,1,9500,1,1,143,Basic,Basic,Low-skilled,Low-skilled,138.8,1,0,0,1,0,0,31,0,11.1,0.6,2.02,Graduate
1,1,6,9070,1,6,119,Secondary,Secondary,Low-skilled,Low-skilled,123.2,1,0,0,1,1,0,22,0,10.8,1.4,1.74,Graduate
1,43,1,9773,1,1,137,Basic,Basic,Low-skilled,Clerical/service,127.9,1,0,0,1,0,0,20,0,15.5,2.8,-4.06,Graduate
1,1,1,9238,1,1,126,Basic,Basic,'Manual skilled','Manual skilled',126.7,1,0,0,1,0,0,19,0,7.6,2.6,0.32,Graduate
1,1,4,9500,1,1,132,Secondary,Basic,Clerical/service,'Manual skilled',121.8,1,0,0,1,0,1,19,0,12.7,3.7,-1.7,Graduate
1,17,1,9991,0,40,127,Basic,Basic,'Manual skilled','Manual skilled',124.9,0,0,0,1,0,0,29,0,16.2,0.3,-0.92,Graduate
1,1,1,9670,1,1,100,Basic,Basic,Low-skilled,Other/unknown,100,0,0,0,1,0,0,20,0,11.1,0.6,2.02,Graduate
1,10,1,9085,1,1,134,Basic,Basic,Clerical/service,Clerical/service,134,1,0,0,1,0,0,22,0,12.7,3.7,-1.7,Graduate
1,17,2,9773,1,1,121,Secondary,Secondary,Clerical/service,Clerical/service,123.1,1,0,0,1,1,0,20,0,9.4,-0.8,-3.12,Graduate
1,7,1,9991,0,40,120,Basic,Basic,Low-skilled,'Manual skilled',120,0,0,0,1,0,0,32,0,12.4,0.5,1.79,Graduate
1,1,1,9070,1,1,110,Secondary,Basic,Low-skilled,Low-skilled,105.1,1,0,0,1,0,1,20,0,12.4,0.5,1.79,Graduate
1,1,1,9500,1,1,148,Secondary,Secondary,Clerical/service,High-skilled,137.5,0,0,0,1,1,0,18,0,16.2,0.3,-0.92,Graduate
1,1,1,9119,1,1,168,Basic,Basic,Clerical/service,Clerical/service,171.2,0,0,0,1,1,1,18,0,12.4,0.5,1.79,Graduate
2,1,1,9238,1,1,134,Basic,Basic,Clerical/service,Clerical/service,120.4,0,0,0,1,0,0,20,0,7.6,2.6,0.32,Graduate
1,1,1,9773,1,1,125,Basic,Basic,Low-skilled,Low-skilled,133.4,1,0,0,1,1,1,20,0,13.9,-0.3,0.79,Graduate
1,1,1,9500,1,1,143,Basic,Basic,Low-skilled,Low-skilled,140,0,0,0,1,1,0,19,0,12.7,3.7,-1.7,Graduate
1,1,1,9147,1,1,148,Basic,Basic,Low-skilled,'Manual skilled',133,1,0,0,1,0,0,18,0,13.9,-0.3,0.79,Graduate
1,16,1,171,1,1,155,Secondary,Higher,Clerical/service,Other/unknown,167.3,1,0,0,1,1,0,19,0,13.9,-0.3,0.79,Graduate
2,39,1,9773,1,38,100,Basic,Basic,Low-skilled,'Manual skilled',154,1,0,0,1,1,0,57,0,9.4,-0.8,-3.12,Graduate
1,17,4,9070,1,1,144,Basic,Secondary,Low-skilled,Low-skilled,137.4,1,0,0,1,1,0,19,0,10.8,1.4,1.74,Graduate
2,39,1,9991,0,1,120,Basic,Basic,High-skilled,Clerical/service,138.7,0,0,0,1,1,0,43,0,10.8,1.4,1.74,Graduate
1,1,1,9773,1,1,151,Basic,Basic,Low-skilled,Clerical/service,138.4,1,0,0,1,0,1,24,0,10.8,1.4,1.74,Graduate
1,1,4,9556,1,1,122,Basic,Secondary,Clerical/service,Clerical/service,123.9,0,0,0,1,0,0,19,0,13.9,-0.3,0.79,Graduate
1,44,1,9670,1,39,110,Basic,Secondary,Low-skilled,Clerical/service,110,0,0,0,1,0,1,20,0,11.1,0.6,2.02,Graduate
1,1,1,9147,1,1,127,Secondary,Higher,Low-skilled,Other/unknown,121.8,0,0,0,1,1,0,19,0,16.2,0.3,-0.92,Graduate
1,17,4,9500,1,1,146,Higher,Secondary,High-skilled,High-skilled,140,1,0,0,1,0,0,18,0,12.7,3.7,-1.7,Graduate
1,1,4,9500,1,1,123,Secondary,Secondary,High-skilled,High-skilled,113.6,1,0,0,1,0,0,21,0,12.4,0.5,1.79,Graduate
1,1,1,9130,1,1,125,Higher,Higher,High-skilled,High-skilled,132.4,0,0,0,1,1,0,20,0,7.6,2.6,0.32,Graduate
1,44,1,9003,1,39,150,Basic,Basic,Clerical/service,'Manual skilled',150,0,0,0,1,0,1,21,0,13.9,-0.3,0.79,Graduate
1,39,1,8014,0,1,120,Secondary,Secondary,Clerical/service,Clerical/service,150.5,0,0,0,1,0,0,27,0,15.5,2.8,-4.06,Graduate
1,18,1,9500,1,1,130,Basic,Basic,'Manual skilled','Manual skilled',119.3,1,0,0,1,0,1,19,0,10.8,1.4,1.74,Graduate
1,44,1,9085,1,39,150,Basic,Basic,Low-skilled,Low-skilled,150,1,0,0,1,0,0,23,0,16.2,0.3,-0.92,Graduate
1,1,1,9238,1,1,107,Higher,Secondary,High-skilled,Other/unknown,104.2,1,0,0,1,0,0,20,0,11.1,0.6,2.02,Graduate
1,17,4,9500,1,1,137,Secondary,Basic,Low-skilled,Low-skilled,128.4,1,0,0,1,0,1,19,0,13.9,-0.3,0.79,Graduate
1,17,1,8014,0,1,141,Unknown,Unknown,Other/unknown,Other/unknown,136.1,0,0,0,1,0,0,24,0,7.6,2.6,0.32,Graduate
1,1,1,9500,1,1,143,Higher,Secondary,High-skilled,Clerical/service,136.7,0,0,0,1,0,0,19,0,11.1,0.6,2.02,Graduate
1,39,1,9670,1,12,170,Secondary,Basic,High-skilled,Clerical/service,110,0,0,0,1,1,1,25,0,15.5,2.8,-4.06,Graduate
1,17,3,9500,1,1,145,Secondary,Secondary,Clerical/service,Other/unknown,139.8,1,0,0,1,0,0,18,0,13.9,-0.3,0.79,Graduate
1,1,1,9500,1,1,130,Basic,Basic,Low-skilled,Low-skilled,117.8,1,0,0,1,0,1,19,0,12.7,3.7,-1.7,Graduate
1,7,1,9500,1,3,130,Basic,Basic,'Manual skilled','Manual skilled',130,1,0,0,1,0,0,27,0,12.7,3.7,-1.7,Graduate
1,1,4,9500,1,1,137,Basic,Basic,Low-skilled,Low-skilled,127.5,1,0,0,1,0,0,18,0,9.4,-0.8,-3.12,Graduate
1,1,6,9500,1,1,134,Basic,Basic,Low-skilled,Low-skilled,122,1,0,0,1,1,0,19,0,12.7,3.7,-1.7,Graduate
1,53,1,9670,1,42,110,Secondary,Basic,Low-skilled,Low-skilled,114.2,0,0,0,1,1,1,23,0,8.9,1.4,3.51,Graduate
1,1,1,9238,1,1,116,Secondary,Basic,Clerical/service,Low-skilled,111.1,0,0,0,1,1,0,18,0,15.5,2.8,-4.06,Graduate
1,1,1,9085,1,1,120,Basic,Basic,Low-skilled,High-skilled,112.7,0,0,0,1,1,0,19,0,11.1,0.6,2.02,Graduate
1,1,1,9500,1,1,129,Basic,Basic,Clerical/service,Clerical/service,119.6,1,0,0,1,0,1,20,0,15.5,2.8,-4.06,Graduate
1,18,1,9556,1,1,133.1,Higher,Basic,High-skilled,'Manual skilled',106,1,0,0,1,1,0,21,0,8.9,1.4,3.51,Graduate
1,18,2,9773,1,1,132,Basic,Basic,Low-skilled,'Manual skilled',119.1,1,0,0,1,0,1,22,1,9.4,-0.8,-3.12,Graduate
1,1,1,9500,1,1,148,Basic,Basic,Low-skilled,'Manual skilled',134.8,1,0,0,1,1,0,18,0,7.6,2.6,0.32,Graduate
1,1,1,9500,1,1,130,Basic,Basic,Low-skilled,'Manual skilled',135,0,0,0,1,0,0,19,0,7.6,2.6,0.32,Graduate
1,44,1,8014,0,39,130,Basic,Basic,'Manual skilled','Manual skilled',130,1,0,0,1,0,0,23,0,11.1,0.6,2.02,Graduate
1,1,2,9670,1,1,121,Secondary,Basic,Clerical/service,'Manual skilled',135.4,1,0,0,1,0,1,19,0,8.9,1.4,3.51,Graduate
1,1,1,9773,1,1,134,Basic,Basic,Low-skilled,Low-skilled,131.6,1,1,0,1,0,0,19,0,10.8,1.4,1.74,Graduate
1,17,1,9254,1,1,115,Secondary,Secondary,Low-skilled,High-skilled,108.7,1,0,0,1,0,1,18,0,12.4,0.5,1.79,Graduate
2,39,1,9003,1,1,140,Basic,Basic,Low-skilled,'Manual skilled',104.8,0,0,0,1,0,0,46,0,15.5,2.8,-4.06,Graduate
1,1,2,9254,1,1,136,Basic,Basic,Low-skilled,'Manual skilled',125.2,1,0,0,1,0,1,18,0,8.9,1.4,3.51,Graduate
1,1,3,9773,1,1,130,Secondary,Basic,Clerical/service,Clerical/service,120.9,1,0,1,1,0,0,18,0,8.9,1.4,3.51,Graduate
1,1,1,9773,1,1,133,Secondary,Higher,High-skilled,High-skilled,135.8,1,0,0,1,0,0,19,0,11.1,0.6,2.02,Graduate
1,1,1,9085,1,1,140,Higher,Higher,High-skilled,High-skilled,146.4,0,0,0,1,0,0,18,0,7.6,2.6,0.32,Graduate
1,1,5,9500,1,1,147,Basic,Basic,Low-skilled,Low-skilled,134.3,0,0,0,1,0,1,18,0,12.7,3.7,-1.7,Graduate
1,43,1,9670,1,1,127,Basic,Basic,Low-skilled,Low-skilled,127,1,0,0,1,1,0,23,1,9.4,-0.8,-3.12,Graduate
1,17,3,9238,1,1,121,Secondary,Secondary,Clerical/service,Clerical/service,117.2,0,0,0,1,0,0,19,0,15.5,2.8,-4.06,Graduate
2,39,1,9773,1,12,100,Secondary,Secondary,Clerical/service,Clerical/service,100,0,0,0,1,0,0,24,0,7.6,2.6,0.32,Graduate
2,39,1,9991,0,1,120,Basic,Basic,Low-skilled,Low-skilled,120.7,0,0,0,1,0,0,39,0,7.6,2.6,0.32,Graduate
1,17,3,9238,1,1,141,Basic,Basic,Low-skilled,'Manual skilled',125.6,1,0,0,1,0,1,19,0,8.9,1.4,3.51,Graduate
1,39,1,8014,0,15,170,Unknown,Secondary,Other/unknown,High-skilled,101,0,0,0,1,0,0,32,0,7.6,2.6,0.32,Graduate
1,44,1,9085,1,1,140,Higher,Higher,High-skilled,'Manual skilled',140,0,0,0,1,0,0,22,0,13.9,-0.3,0.79,Graduate
4,39,2,8014,0,1,160,Basic,Basic,'Manual skilled',Clerical/service,115,0,0,0,1,0,1,41,0,10.8,1.4,1.74,Graduate
1,1,6,9500,1,1,143,Basic,Basic,Clerical/service,Clerical/service,135.3,1,0,0,1,0,0,18,0,9.4,-0.8,-3.12,Graduate
2,7,1,8014,0,3,110,Basic,Basic,Low-skilled,Low-skilled,110,0,0,0,1,0,0,39,0,16.2,0.3,-0.92,Graduate
1,43,2,9556,1,1,120,Secondary,Basic,Clerical/service,High-skilled,110.2,0,0,0,1,0,0,27,0,10.8,1.4,1.74,Graduate
1,44,1,8014,0,39,140,Secondary,Higher,Clerical/service,'Manual skilled',139.2,0,0,1,1,0,0,20,0,12.4,0.5,1.79,Graduate
1,1,1,171,1,1,115,Secondary,Secondary,Low-skilled,Low-skilled,134.3,1,0,0,1,1,0,25,0,12.4,0.5,1.79,Graduate
1,44,1,9003,1,39,130,Basic,Basic,Low-skilled,Low-skilled,130,1,0,0,1,1,0,23,0,8.9,1.4,3.51,Graduate
1,44,1,9070,1,39,140,Secondary,Basic,Clerical/service,Clerical/service,140,0,0,0,1,1,0,25,0,16.2,0.3,-0.92,Graduate
1,1,1,9003,1,1,148,Basic,Basic,Low-skilled,Low-skilled,131.6,1,0,0,1,1,0,19,0,15.5,2.8,-4.06,Graduate
1,1,3,9085,1,1,138,Secondary,Secondary,Clerical/service,'Manual skilled',128.7,1,0,0,1,0,0,18,0,8.9,1.4,3.51,Graduate
1,43,1,9070,1,1,141,Secondary,Basic,Clerical/service,Other/unknown,127,0,0,0,1,0,0,20,0,12.7,3.7,-1.7,Graduate
1,1,1,9500,1,1,139,Basic,Basic,Low-skilled,Low-skilled,131.5,1,0,0,1,0,0,18,0,10.8,1.4,1.74,Graduate
1,42,1,9500,1,1,157,Higher,Higher,High-skilled,High-skilled,100,0,0,0,1,0,0,18,0,13.9,-0.3,0.79,Graduate
1,1,3,9670,1,1,126,Basic,Basic,Other/unknown,Other/unknown,136.5,1,0,0,1,0,0,18,0,7.6,2.6,0.32,Graduate
1,1,2,9254,1,1,132,Secondary,Basic,Low-skilled,Low-skilled,129.9,1,0,0,1,0,1,19,0,8.9,1.4,3.51,Graduate
1,1,1,9070,1,1,135,Basic,Basic,Low-skilled,Low-skilled,128,1,0,0,1,0,1,19,0,10.8,1.4,1.74,Graduate
1,43,4,8014,0,1,116,Unknown,Unknown,Other/unknown,Other/unknown,116.2,0,0,0,1,1,0,21,0,9.4,-0.8,-3.12,Graduate
1,18,1,9500,1,1,123,Basic,Basic,High-skilled,High-skilled,118,1,0,0,1,0,1,19,0,10.8,1.4,1.74,Graduate
1,17,1,9238,1,1,128,Basic,Secondary,Other/unknown,Clerical/service,122.1,1,0,0,1,0,0,18,0,13.9,-0.3,0.79,Graduate
1,1,2,9500,1,1,139,Higher,Secondary,High-skilled,Other/unknown,136.4,1,0,0,1,0,0,19,0,15.5,2.8,-4.06,Graduate
1,1,4,9147,1,1,137,Secondary,Basic,Clerical/service,Clerical/service,136.3,0,0,0,1,0,0,18,0,8.9,1.4,3.51,Graduate
1,17,1,9130,1,1,130,Basic,Basic,Clerical/service,'Manual skilled',122.5,0,0,0,1,1,0,19,0,9.4,-0.8,-3.12,Graduate
1,53,1,9085,1,42,150,Secondary,Basic,Clerical/service,'Manual skilled',145.2,1,0,0,1,0,0,20,0,8.9,1.4,3.51,Graduate
1,1,1,9500,1,1,147,Higher,Secondary,High-skilled,High-skilled,131.6,0,0,0,1,0,0,18,0,11.1,0.6,2.02,Graduate
1,1,1,9254,1,1,116,Basic,Basic,Clerical/service,'Manual skilled',110.8,1,0,0,1,0,0,18,0,11.1,0.6,2.02,Graduate
1,43,1,9500,1,1,157,Basic,Higher,Clerical/service,High-skilled,141.4,0,0,0,1,0,0,21,0,13.9,-0.3,0.79,Graduate
4,39,1,9773,1,19,133.1,Basic,Basic,Low-skilled,High-skilled,117.5,0,0,0,1,0,0,39,0,10.8,1.4,1.74,Graduate
1,39,1,9500,1,19,133.1,Basic,Basic,Low-skilled,'Manual skilled',116,0,0,0,1,0,1,26,0,7.6,2.6,0.32,Graduate
1,18,2,9238,1,1,121,Basic,Secondary,Clerical/service,High-skilled,121.4,1,0,0,1,0,1,19,0,15.5,2.8,-4.06,Graduate
1,1,1,9500,1,1,160,Basic,Basic,Clerical/service,Low-skilled,154.4,0,0,0,1,0,1,18,0,15.5,2.8,-4.06,Graduate
1,17,2,9773,1,1,132,Basic,Basic,Low-skilled,'Manual skilled',120.1,1,0,0,1,0,1,18,0,8.9,1.4,3.51,Graduate
1,39,1,9670,1,19,133.1,Basic,Secondary,Clerical/service,'Manual skilled',97.2,1,0,0,1,1,1,24,0,11.1,0.6,2.02,Graduate
1,44,1,9070,1,39,130,Secondary,Secondary,Clerical/service,Other/unknown,130,1,0,0,1,0,0,19,0,16.2,0.3,-0.92,Graduate
1,44,1,9003,1,39,160,Secondary,Basic,Clerical/service,Clerical/service,160,1,0,0,1,1,1,20,0,13.9,-0.3,0.79,Graduate
4,39,1,9003,1,19,133.1,Basic,Basic,Low-skilled,Low-skilled,110,0,0,0,1,1,0,49,0,15.5,2.8,-4.06,Graduate
1,1,6,9500,1,1,122,Basic,Basic,High-skilled,Clerical/service,116.6,1,0,1,1,1,1,20,0,12.4,0.5,1.79,Graduate
1,43,1,9991,0,1,130,Basic,Basic,Low-skilled,Low-skilled,119.5,1,0,0,1,0,0,22,0,7.6,2.6,0.32,Graduate
3,39,1,9991,0,1,120,Basic,Secondary,Low-skilled,High-skilled,170,0,0,0,1,1,0,43,0,9.4,-0.8,-3.12,Graduate
1,39,1,8014,0,1,120,Basic,Basic,Low-skilled,Low-skilled,148.5,0,0,0,1,0,1,31,0,10.8,1.4,1.74,Graduate
1,17,4,9147,1,1,133,Secondary,Secondary,Clerical/service,Clerical/service,136.2,1,0,0,1,0,0,19,0,7.6,2.6,0.32,Graduate
1,1,6,9500,1,1,141,Secondary,Basic,Clerical/service,Clerical/service,125,1,0,0,1,0,1,18,0,9.4,-0.8,-3.12,Graduate
1,17,4,9500,1,1,133,Higher,Higher,Clerical/service,Clerical/service,130.7,1,0,0,1,0,0,19,0,12.4,0.5,1.79,Graduate
1,51,1,9238,1,1,160,Higher,Basic,High-skilled,High-skilled,116.1,0,0,1,1,0,0,26,0,11.1,0.6,2.02,Graduate
1,1,1,9556,1,1,135,Basic,Basic,'Manual skilled',Low-skilled,125.8,0,0,0,1,0,1,20,0,12.7,3.7,-1.7,Graduate
1,44,1,9003,1,39,140,Secondary,Basic,Low-skilled,High-skilled,140,1,0,0,1,1,0,22,0,12.4,0.5,1.79,Graduate
1,1,3,9500,1,1,126,Basic,Basic,Low-skilled,'Manual skilled',118.8,1,0,0,1,0,1,19,0,12.7,3.7,-1.7,Graduate
1,1,1,9085,1,1,133,Basic,Basic,Low-skilled,'Manual skilled',120.1,1,0,0,1,0,0,18,0,12.7,3.7,-1.7,Graduate
1,17,2,9147,1,1,131,Secondary,Basic,Clerical/service,Clerical/service,120.2,1,0,0,1,0,0,21,0,12.4,0.5,1.79,Graduate
1,1,1,9238,1,1,126,Higher,Secondary,Clerical/service,Clerical/service,125.7,0,0,0,1,0,1,18,0,15.5,2.8,-4.06,Graduate
1,1,1,9085,1,1,136,Secondary,Basic,Low-skilled,Low-skilled,130.8,1,0,0,1,0,0,18,0,12.7,3.7,-1.7,Graduate
1,43,1,9003,1,1,125,Secondary,Basic,Clerical/service,'Manual skilled',125,1,0,0,1,0,0,21,0,15.5,2.8,-4.06,Graduate
1,1,1,9254,1,1,138,Secondary,Secondary,Low-skilled,Low-skilled,126.5,1,0,0,1,0,1,20,1,8.9,1.4,3.51,Graduate
2,39,1,8014,0,1,133.1,Basic,Secondary,Clerical/service,'Manual skilled',144.3,0,0,0,1,1,0,41,0,10.8,1.4,1.74,Graduate
1,1,1,9238,1,1,120,Basic,Basic,Clerical/service,Low-skilled,130.2,0,0,0,1,0,1,18,0,12.4,0.5,1.79,Graduate
1,1,4,9500,1,1,133,Basic,Basic,Low-skilled,Clerical/service,120.1,1,0,0,1,0,1,19,0,13.9,-0.3,0.79,Graduate
2,39,1,9085,1,1,120,Basic,Basic,'Manual skilled','Manual skilled',150,0,0,0,1,1,0,43,0,9.4,-0.8,-3.12,Graduate
1,7,1,9147,1,40,110,Basic,Basic,Low-skilled,Low-skilled,110,0,0,0,1,0,0,52,0,13.9,-0.3,0.79,Graduate
1,42,1,9500,1,1,100,Basic,Basic,'Manual skilled',Low-skilled,100,1,0,0,1,0,1,19,0,10.8,1.4,1.74,Graduate
1,1,4,9147,1,1,116,Secondary,Secondary,High-skilled,Clerical/service,113.6,1,0,0,1,0,1,22,0,11.1,0.6,2.02,Graduate
1,1,1,9773,1,1,146,Secondary,Higher,Clerical/service,High-skilled,135.2,1,0,0,1,1,0,18,0,9.4,-0.8,-3.12,Graduate
1,1,1,9147,1,1,146,Higher,Secondary,High-skilled,Clerical/service,144.6,0,0,0,1,1,0,18,0,16.2,0.3,-0.92,Graduate
4,7,1,9500,1,3,140,Basic,Basic,Low-skilled,'Manual skilled',140,0,0,0,1,1,0,51,0,13.9,-0.3,0.79,Graduate
1,1,3,9238,1,1,135,Secondary,Secondary,Low-skilled,Other/unknown,121,1,0,0,1,0,1,19,0,12.4,0.5,1.79,Graduate
1,1,3,9500,1,1,141,Basic,Basic,Low-skilled,'Manual skilled',131.7,1,0,0,1,0,1,19,0,15.5,2.8,-4.06,Graduate
1,1,1,9085,1,1,130,Basic,Basic,Low-skilled,Low-skilled,126.9,0,0,1,1,0,0,24,0,11.1,0.6,2.02,Graduate
1,1,1,9254,1,1,132,Secondary,Basic,'Manual skilled','Manual skilled',124.7,1,0,0,1,1,0,21,0,13.9,-0.3,0.79,Graduate
1,17,1,9085,1,1,138,Secondary,Basic,Clerical/service,Low-skilled,142.2,1,0,0,1,0,0,18,0,10.8,1.4,1.74,Graduate
2,43,1,9238,1,12,100,Basic,Basic,Low-skilled,Low-skilled,134.4,0,0,0,1,0,0,34,0,7.6,2.6,0.32,Graduate
1,17,1,9773,1,1,141,Higher,Higher,High-skilled,High-skilled,133.7,1,0,0,1,0,1,18,0,11.1,0.6,2.02,Graduate
1,17,4,9147,1,1,121,Basic,Basic,'Manual skilled','Manual skilled',113,1,0,0,1,0,1,18,0,13.9,-0.3,0.79,Graduate
1,1,2,9500,1,1,140,Basic,Basic,Low-skilled,'Manual skilled',138.8,1,0,0,1,0,0,19,0,7.6,2.6,0.32,Graduate
1,1,3,9147,1,1,115,Secondary,Basic,High-skilled,'Manual skilled',109.8,1,0,0,1,0,1,19,0,8.9,1.4,3.51,Graduate
1,17,2,9670,1,1,123,Higher,Secondary,High-skilled,High-skilled,116.7,0,0,0,1,0,0,19,0,9.4,-0.8,-3.12,Graduate
2,39,1,8014,0,1,133.1,Basic,Basic,Low-skilled,Low-skilled,113.5,0,0,0,1,0,1,50,0,12.7,3.7,-1.7,Graduate
2,39,1,9991,0,19,133.1,Basic,Basic,Low-skilled,'Manual skilled',114.8,0,0,1,1,1,0,50,0,16.2,0.3,-0.92,Graduate
1,43,1,9085,1,1,110,Basic,Basic,Low-skilled,'Manual skilled',117.2,1,0,0,1,1,0,28,1,15.5,2.8,-4.06,Graduate
1,1,2,9500,1,1,134,Secondary,Secondary,Clerical/service,High-skilled,128.4,1,0,0,1,0,0,18,0,16.2,0.3,-0.92,Graduate
1,1,6,9500,1,1,141,Higher,Higher,High-skilled,High-skilled,136.3,1,0,0,1,1,0,18,0,9.4,-0.8,-3.12,Graduate
1,39,1,9003,1,3,130,Higher,Higher,High-skilled,High-skilled,150,0,0,0,1,0,0,35,0,16.2,0.3,-0.92,Graduate
1,17,1,9500,1,1,130,Basic,Secondary,Low-skilled,'Manual skilled',130.4,1,0,0,1,0,1,19,0,11.1,0.6,2.02,Graduate
2,43,1,9254,1,3,120,Basic,Basic,Low-skilled,High-skilled,120,1,0,0,1,0,0,33,0,9.4,-0.8,-3.12,Graduate
1,1,1,9085,1,1,121,Basic,Basic,'Manual skilled',Low-skilled,121,0,0,0,1,0,0,19,0,7.6,2.6,0.32,Graduate
1,18,1,9670,1,1,128,Basic,Higher,Low-skilled,'Manual skilled',120,1,0,0,1,0,0,19,0,11.1,0.6,2.02,Graduate
1,1,1,9254,1,1,111,Secondary,Secondary,High-skilled,High-skilled,112.4,1,0,0,1,1,0,20,0,12.4,0.5,1.79,Graduate
2,43,1,9991,0,1,140,Basic,Basic,Low-skilled,Low-skilled,130,1,0,0,1,1,0,30,0,9.4,-0.8,-3.12,Graduate
2,39,1,9130,1,19,133.1,Basic,Basic,Low-skilled,Low-skilled,120,0,0,0,1,1,0,53,0,9.4,-0.8,-3.12,Graduate
2,39,1,9991,0,1,110,Basic,Basic,Low-skilled,Other/unknown,150,0,0,0,1,1,0,49,0,15.5,2.8,-4.06,Graduate
1,1,1,9070,1,1,147,Higher,Secondary,High-skilled,High-skilled,149.8,1,0,0,1,1,0,20,0,16.2,0.3,-0.92,Graduate
1,17,2,8014,0,1,122,Basic,Basic,Low-skilled,Low-skilled,123.8,0,0,0,1,0,0,20,0,10.8,1.4,1.74,Graduate
1,43,1,9500,1,1,140,Secondary,Basic,Clerical/service,'Manual skilled',100,0,0,0,1,0,1,18,0,13.9,-0.3,0.79,Graduate
1,43,1,9773,1,1,123,Basic,Basic,Low-skilled,'Manual skilled',134,0,0,0,1,0,1,20,0,12.4,0.5,1.79,Graduate
1,1,1,9773,1,1,125,Basic,Secondary,Low-skilled,Low-skilled,130.6,1,0,0,1,0,1,18,0,8.9,1.4,3.51,Graduate
1,43,3,171,1,1,120,Basic,Basic,Low-skilled,Low-skilled,143.3,1,0,0,1,0,1,20,0,7.6,2.6,0.32,Graduate
1,1,6,9500,1,1,136,Basic,Secondary,Clerical/service,Clerical/service,120.8,1,0,0,1,0,0,19,0,7.6,2.6,0.32,Graduate
1,17,1,9085,1,1,113,Basic,Basic,Low-skilled,Low-skilled,118.6,1,0,0,1,0,1,21,0,8.9,1.4,3.51,Graduate
1,1,1,9085,1,1,120,Basic,Basic,Low-skilled,High-skilled,123.2,0,0,0,1,0,0,20,0,9.4,-0.8,-3.12,Graduate
1,1,2,9500,1,1,147,Higher,Secondary,Clerical/service,High-skilled,136.7,0,0,0,1,0,0,18,0,11.1,0.6,2.02,Graduate
1,42,1,9500,1,1,124,Basic,Basic,Clerical/service,Low-skilled,124,0,0,0,1,0,0,23,0,9.4,-0.8,-3.12,Graduate
1,17,1,8014,0,1,136,Basic,Basic,Clerical/service,'Manual skilled',132.5,0,0,1,1,0,1,22,0,13.9,-0.3,0.79,Graduate
1,39,1,9500,1,19,133.1,Basic,Basic,Low-skilled,Low-skilled,133,0,0,0,1,0,0,24,0,13.9,-0.3,0.79,Graduate
1,17,3,9773,1,1,123,Secondary,Basic,Clerical/service,Clerical/service,117.4,1,0,0,1,0,1,18,0,16.2,0.3,-0.92,Graduate
1,17,4,9500,1,1,129,Basic,Basic,Low-skilled,Clerical/service,120,1,0,0,1,0,0,19,0,10.8,1.4,1.74,Graduate
1,17,1,9085,1,1,130,Basic,Basic,Clerical/service,Other/unknown,127.6,0,0,0,1,1,0,23,0,7.6,2.6,0.32,Graduate
1,17,4,9773,1,1,121,Secondary,Basic,Low-skilled,'Manual skilled',120.3,1,0,1,1,1,1,19,0,8.9,1.4,3.51,Graduate
1,1,5,9070,1,1,125,Higher,Higher,High-skilled,High-skilled,140.8,1,0,0,1,1,0,22,0,9.4,-0.8,-3.12,Graduate
1,1,3,9500,1,1,147,Secondary,Secondary,Clerical/service,Clerical/service,134.3,1,0,0,1,0,0,18,0,12.7,3.7,-1.7,Graduate
1,1,1,9773,1,1,160,Secondary,Basic,Clerical/service,'Manual skilled',146.5,0,0,0,1,0,1,18,0,13.9,-0.3,0.79,Graduate
1,17,1,9238,1,1,145,Secondary,Higher,Low-skilled,High-skilled,129.6,0,0,0,1,0,1,19,0,11.1,0.6,2.02,Graduate
1,17,1,9670,1,1,120,Basic,Basic,Low-skilled,'Manual skilled',113.4,1,0,0,1,1,1,19,0,8.9,1.4,3.51,Graduate
1,1,3,9773,1,1,121,Basic,Basic,High-skilled,High-skilled,116.1,0,0,0,1,0,1,18,0,12.4,0.5,1.79,Graduate
1,7,1,9238,1,3,140,Basic,Basic,Low-skilled,Low-skilled,140,1,0,0,1,0,0,36,0,16.2,0.3,-0.92,Graduate
1,1,1,9500,1,1,156,Basic,Basic,Low-skilled,Low-skilled,156.3,0,0,0,1,1,1,18,0,9.4,-0.8,-3.12,Graduate
1,39,1,9670,1,1,133.1,Secondary,Basic,Clerical/service,Low-skilled,140,0,0,0,1,1,1,25,0,15.5,2.8,-4.06,Graduate
2,39,1,8014,0,19,100,Basic,Basic,Other/unknown,Other/unknown,111.3,0,0,1,0,0,0,25,0,7.6,2.6,0.32,Graduate
1,16,1,9003,1,1,147,Secondary,Basic,Clerical/service,Low-skilled,140.7,1,0,1,1,0,1,20,0,15.5,2.8,-4.06,Graduate
1,17,1,171,1,1,142,Basic,Basic,Low-skilled,Low-skilled,132.9,0,0,0,1,1,0,22,0,12.7,3.7,-1.7,Graduate
1,1,2,9500,1,1,149,Basic,Secondary,Low-skilled,Low-skilled,137.8,1,0,0,1,1,0,18,0,12.7,3.7,-1.7,Graduate
1,1,1,9085,1,1,133.1,Basic,Basic,'Manual skilled',Clerical/service,106,1,0,0,1,0,1,21,0,15.5,2.8,-4.06,Graduate
1,51,1,9085,1,1,127,Higher,Higher,High-skilled,'Manual skilled',138.8,1,0,0,1,0,0,22,0,8.9,1.4,3.51,Graduate
1,43,1,9238,1,1,142,Unknown,Unknown,Other/unknown,Other/unknown,131.9,0,0,0,1,0,1,29,0,9.4,-0.8,-3.12,Graduate
1,1,1,9853,1,1,122,Basic,Basic,Low-skilled,Low-skilled,112.9,1,0,0,1,0,1,19,0,8.9,1.4,3.51,Graduate
1,17,2,9853,1,1,112,Basic,Basic,Clerical/service,'Manual skilled',107.1,1,0,0,1,0,1,18,0,11.1,0.6,2.02,Graduate
1,1,6,9500,1,1,151,Higher,Secondary,High-skilled,High-skilled,129.8,1,0,0,1,1,0,18,0,9.4,-0.8,-3.12,Graduate
1,16,1,9070,1,1,125,Secondary,Secondary,Clerical/service,Clerical/service,120.8,1,0,0,1,0,0,18,0,12.4,0.5,1.79,Graduate
1,1,1,9147,1,1,142,Basic,Basic,Low-skilled,Low-skilled,127,1,0,0,1,0,1,18,0,13.9,-0.3,0.79,Graduate
1,18,4,9773,1,1,114,Secondary,Secondary,Low-skilled,Low-skilled,111.6,1,0,0,1,0,1,21,0,11.1,0.6,2.02,Graduate
1,1,1,171,1,1,150,Basic,Basic,Low-skilled,Low-skilled,137.8,1,0,0,1,1,1,19,0,13.9,-0.3,0.79,Graduate
1,17,1,9773,1,1,133.1,Basic,Basic,'Manual skilled','Manual skilled',126,0,0,0,1,0,1,19,0,15.5,2.8,-4.06,Graduate
1,17,4,9500,1,1,143,Basic,Basic,Low-skilled,'Manual skilled',131.5,1,0,0,1,1,1,18,0,13.9,-0.3,0.79,Graduate
1,39,1,9773,1,1,130,Secondary,Basic,High-skilled,High-skilled,161.5,0,0,0,1,1,0,36,0,10.8,1.4,1.74,Graduate
1,1,1,9130,1,1,137,Higher,Basic,High-skilled,Clerical/service,136.3,1,0,0,1,0,0,20,0,10.8,1.4,1.74,Graduate
1,17,5,9773,1,1,146,Secondary,Basic,Clerical/service,Clerical/service,146.7,1,0,0,1,1,0,19,0,7.6,2.6,0.32,Graduate
2,43,1,9070,1,2,140,Basic,Basic,'Manual skilled','Manual skilled',140,1,0,0,1,1,0,38,0,16.2,0.3,-0.92,Graduate
1,17,1,9119,1,1,148,Secondary,Basic,Clerical/service,Clerical/service,148.7,0,0,0,1,1,0,18,0,8.9,1.4,3.51,Graduate
1,17,3,9147,1,1,112,Secondary,Secondary,High-skilled,High-skilled,106.4,1,0,0,1,1,0,19,0,12.4,0.5,1.79,Graduate
2,1,1,9556,1,1,144,Basic,Basic,Low-skilled,Clerical/service,139.8,0,0,1,1,1,0,24,0,10.8,1.4,1.74,Graduate
1,17,1,9147,1,1,118,Basic,Basic,Low-skilled,Low-skilled,122.2,0,0,0,1,0,0,19,0,11.1,0.6,2.02,Graduate
1,1,6,9500,1,1,133,Higher,Higher,High-skilled,High-skilled,126.2,1,0,0,1,0,0,19,0,15.5,2.8,-4.06,Graduate
2,39,1,9500,1,1,140,Basic,Basic,Low-skilled,Clerical/service,127.3,0,0,0,1,1,0,26,0,10.8,1.4,1.74,Graduate
1,17,3,9773,1,1,134,Higher,Secondary,High-skilled,High-skilled,129.5,1,0,0,1,1,0,18,0,16.2,0.3,-0.92,Graduate
1,1,6,9500,1,1,103,Secondary,Higher,High-skilled,High-skilled,100.6,1,1,0,1,0,0,22,0,11.1,0.6,2.02,Graduate
1,17,1,9670,1,1,117,Secondary,Secondary,Clerical/service,Clerical/service,117.7,1,0,0,1,1,0,20,0,8.9,1.4,3.51,Graduate
1,44,1,9085,1,39,150,Basic,Basic,Clerical/service,'Manual skilled',150,1,0,0,1,0,1,22,0,13.9,-0.3,0.79,Graduate
1,1,1,9500,1,1,141,Secondary,Basic,High-skilled,High-skilled,131.9,1,0,0,1,0,1,18,0,11.1,0.6,2.02,Graduate
1,17,1,9070,1,1,124,Basic,Basic,Clerical/service,Other/unknown,117.6,1,0,0,1,1,0,20,0,7.6,2.6,0.32,Graduate
1,1,6,9500,1,1,127,Secondary,Basic,High-skilled,High-skilled,120.2,1,0,0,1,0,1,19,0,12.4,0.5,1.79,Graduate
1,1,1,9773,1,1,125,Higher,Basic,High-skilled,High-skilled,125.7,1,0,0,1,0,0,19,0,8.9,1.4,3.51,Graduate
1,18,1,9254,1,1,137,Basic,Basic,Clerical/service,Clerical/service,126.9,0,0,0,1,1,0,20,0,16.2,0.3,-0.92,Graduate
1,1,1,171,1,1,163,Basic,Secondary,Low-skilled,'Manual skilled',143.1,0,0,0,1,1,0,18,0,9.4,-0.8,-3.12,Graduate
1,1,1,9254,1,1,125,Secondary,Secondary,Low-skilled,Low-skilled,114.5,0,0,0,1,1,0,20,0,8.9,1.4,3.51,Graduate
1,1,2,9085,1,1,144,Secondary,Basic,Clerical/service,Other/unknown,132.1,1,0,0,1,0,1,19,0,12.7,3.7,-1.7,Graduate
1,1,1,9773,1,1,156,Higher,Higher,High-skilled,High-skilled,155,0,0,0,1,0,0,18,0,8.9,1.4,3.51,Graduate
1,1,1,9238,1,1,120,Higher,Higher,High-skilled,High-skilled,111.6,0,0,0,1,0,0,20,0,12.4,0.5,1.79,Graduate
1,17,1,9085,1,1,163,Basic,Basic,Low-skilled,Low-skilled,150.8,1,0,0,1,0,0,19,1,15.5,2.8,-4.06,Graduate
1,43,5,9238,1,1,101,Basic,Basic,Low-skilled,'Manual skilled',119.9,1,0,1,0,0,0,22,1,9.4,-0.8,-3.12,Graduate
1,7,1,9070,1,40,120,Secondary,Basic,High-skilled,Low-skilled,120,1,0,0,1,0,0,21,0,13.9,-0.3,0.79,Graduate
1,17,2,9147,1,1,134,Basic,Basic,Low-skilled,'Manual skilled',126.3,1,0,0,1,0,1,18,0,16.2,0.3,-0.92,Graduate
1,1,1,9238,1,1,133.1,Basic,Basic,Low-skilled,Low-skilled,118,0,0,1,1,0,1,20,0,8.9,1.4,3.51,Graduate
1,43,1,9254,1,1,112,Basic,Basic,Low-skilled,Low-skilled,108.5,0,0,0,1,1,0,21,0,9.4,-0.8,-3.12,Graduate
1,16,2,9500,1,1,127,Higher,Basic,Clerical/service,Low-skilled,119,1,0,0,1,0,1,19,0,10.8,1.4,1.74,Graduate
1,1,1,9147,1,1,139,Basic,Secondary,Clerical/service,Clerical/service,127.1,1,0,0,1,1,1,22,0,12.7,3.7,-1.7,Graduate
1,1,1,9500,1,1,136,Basic,Basic,Clerical/service,'Manual skilled',136,0,0,0,1,0,1,19,0,13.9,-0.3,0.79,Graduate
1,1,2,9500,1,1,137,Basic,Basic,'Manual skilled','Manual skilled',120.8,1,0,0,1,0,1,18,0,10.8,1.4,1.74,Graduate
1,17,3,9070,1,1,130,Secondary,Higher,Clerical/service,High-skilled,131.4,0,0,0,1,1,0,20,0,11.1,0.6,2.02,Graduate
1,17,1,9070,1,1,127,Basic,Basic,Low-skilled,Clerical/service,131.2,1,0,0,1,1,0,18,0,7.6,2.6,0.32,Graduate
1,43,1,9070,1,39,130,Basic,Basic,Clerical/service,Low-skilled,124,1,0,0,1,0,1,21,0,15.5,2.8,-4.06,Graduate
1,17,1,9670,1,1,128,Basic,Basic,'Manual skilled','Manual skilled',124.4,0,0,0,1,0,1,19,0,13.9,-0.3,0.79,Graduate
1,43,2,9238,1,1,118,Basic,Basic,Clerical/service,Clerical/service,110,0,0,0,1,0,1,19,0,10.8,1.4,1.74,Graduate
1,1,1,9500,1,1,125,Secondary,Secondary,Clerical/service,Clerical/service,119.8,1,0,0,1,0,1,19,0,9.4,-0.8,-3.12,Graduate
1,1,1,9070,1,1,148,Higher,Secondary,High-skilled,Other/unknown,148,1,0,0,1,0,0,20,0,15.5,2.8,-4.06,Graduate
1,39,1,8014,0,1,130,Basic,Basic,Low-skilled,Low-skilled,120,0,0,0,1,0,0,58,0,9.4,-0.8,-3.12,Graduate
1,17,1,9500,1,1,157,Basic,Higher,Clerical/service,Low-skilled,138.8,0,0,0,1,1,0,18,0,12.7,3.7,-1.7,Graduate
1,18,3,9070,1,1,138,Basic,Basic,Low-skilled,'Manual skilled',125.1,1,0,0,1,0,1,19,0,15.5,2.8,-4.06,Graduate
1,44,1,9003,1,39,140,Secondary,Secondary,Clerical/service,High-skilled,140,1,0,0,1,0,0,20,0,12.4,0.5,1.79,Graduate
1,44,1,9003,1,39,160,Higher,Secondary,High-skilled,'Manual skilled',160,1,0,0,0,0,0,20,0,16.2,0.3,-0.92,Graduate
1,1,3,9070,1,1,139,Secondary,Basic,Clerical/service,'Manual skilled',142.2,1,0,0,1,0,1,19,0,9.4,-0.8,-3.12,Graduate
1,1,5,9500,1,1,139,Basic,Basic,'Manual skilled','Manual skilled',126.3,1,0,0,1,0,1,18,0,9.4,-0.8,-3.12,Graduate
1,1,1,9500,1,1,135,Higher,Secondary,High-skilled,'Manual skilled',126.6,0,0,0,1,0,1,19,0,11.1,0.6,2.02,Graduate
1,1,1,9254,1,1,126,Secondary,Basic,Clerical/service,Clerical/service,116.9,0,0,0,1,1,0,18,0,8.9,1.4,3.51,Graduate
1,18,1,9500,1,1,144,Basic,Basic,'Manual skilled','Manual skilled',127.5,1,0,0,1,0,1,19,0,12.7,3.7,-1.7,Graduate
1,1,3,9070,1,1,147,Unknown,Basic,Clerical/service,'Manual skilled',135.8,1,0,0,1,0,0,20,0,9.4,-0.8,-3.12,Graduate
1,1,6,9500,1,1,141,Basic,Secondary,Low-skilled,Other/unknown,126.8,1,0,0,1,0,0,18,0,10.8,1.4,1.74,Graduate
1,1,1,9500,1,1,148,Higher,Higher,High-skilled,High-skilled,137.3,1,0,0,1,0,0,19,0,7.6,2.6,0.32,Graduate
2,44,1,9003,1,39,160,Basic,Basic,Low-skilled,Clerical/service,160,0,0,0,1,0,0,43,0,15.5,2.8,-4.06,Graduate
1,1,4,9500,1,1,123,Basic,Basic,Low-skilled,Other/unknown,116.7,1,0,0,1,0,0,20,0,16.2,0.3,-0.92,Graduate
4,39,1,8014,0,19,140,Basic,Basic,Low-skilled,High-skilled,131,0,0,0,1,0,1,29,0,10.8,1.4,1.74,Graduate
1,1,6,9500,1,1,140,Higher,Secondary,High-skilled,High-skilled,131.5,1,0,0,1,0,0,19,0,9.4,-0.8,-3.12,Graduate
1,17,3,9500,1,1,133,Secondary,Secondary,Low-skilled,Low-skilled,128.5,1,0,0,1,0,1,18,0,11.1,0.6,2.02,Graduate
1,39,1,9500,1,19,133.1,Basic,Basic,Low-skilled,Clerical/service,120,0,0,0,1,0,1,25,0,9.4,-0.8,-3.12,Graduate
2,1,1,9500,1,1,142,Basic,Basic,Clerical/service,Clerical/service,130.3,0,0,0,1,0,0,18,0,7.6,2.6,0.32,Graduate
1,39,1,9254,1,1,150,Basic,Basic,Low-skilled,Low-skilled,115,0,0,0,1,1,0,36,0,12.7,3.7,-1.7,Graduate
1,39,1,9500,1,1,130,Basic,Basic,Low-skilled,'Manual skilled',133,1,0,0,1,0,1,26,0,7.6,2.6,0.32,Graduate
1,17,1,9085,1,1,135,Secondary,Basic,Clerical/service,Other/unknown,125.6,1,0,0,1,0,0,18,0,12.7,3.7,-1.7,Graduate
1,1,1,9147,1,1,124,Basic,Basic,Low-skilled,Low-skilled,115.6,0,0,0,1,1,1,20,0,13.9,-0.3,0.79,Graduate
1,17,3,9500,1,1,141,Basic,Secondary,Low-skilled,Clerical/service,129,1,0,0,1,0,1,18,0,7.6,2.6,0.32,Graduate
1,1,2,9254,1,1,111,Secondary,Basic,Clerical/service,'Manual skilled',109.3,1,0,0,1,0,1,20,0,11.1,0.6,2.02,Graduate
1,17,1,9670,1,1,121,Basic,Basic,Clerical/service,Other/unknown,114.4,0,0,0,1,0,0,19,0,11.1,0.6,2.02,Graduate
1,7,1,9500,1,3,140,Basic,Basic,Clerical/service,Clerical/service,140,0,0,0,1,0,0,25,0,10.8,1.4,1.74,Graduate
1,1,1,9238,1,1,134,Secondary,Secondary,Clerical/service,Low-skilled,124.2,1,0,1,1,0,1,19,0,9.4,-0.8,-3.12,Graduate
1,1,1,9670,1,1,115,Secondary,Secondary,Clerical/service,Clerical/service,108,1,0,0,1,0,1,20,0,12.4,0.5,1.79,Graduate
1,1,2,9500,1,1,124,Basic,Basic,Low-skilled,Low-skilled,116,1,0,0,1,0,1,21,0,12.7,3.7,-1.7,Graduate
2,44,1,8014,0,39,160,Basic,Basic,Low-skilled,Other/unknown,155.9,0,0,0,1,0,0,33,0,13.9,-0.3,0.79,Graduate
1,17,1,8014,0,1,120,Basic,Basic,'Manual skilled','Manual skilled',113,0,0,0,1,0,1,24,0,10.8,1.4,1.74,Graduate
1,17,4,9500,1,1,132,Basic,Basic,Clerical/service,'Manual skilled',125.5,0,0,0,1,0,1,19,0,15.5,2.8,-4.06,Graduate
1,17,5,9500,1,1,147,Basic,Secondary,Clerical/service,High-skilled,138.5,1,0,0,1,0,0,19,0,9.4,-0.8,-3.12,Graduate
1,1,1,9130,1,1,132,Higher,Secondary,Clerical/service,Low-skilled,121.9,1,0,0,1,0,0,18,0,13.9,-0.3,0.79,Graduate
1,1,3,9773,1,1,110,Basic,Basic,Clerical/service,Clerical/service,105.5,1,0,0,1,0,0,19,0,12.4,0.5,1.79,Graduate
1,17,1,9238,1,1,116,Basic,Basic,'Manual skilled','Manual skilled',111.1,1,0,0,1,0,1,18,0,8.9,1.4,3.51,Graduate
1,17,2,171,1,1,142,Higher,Secondary,High-skilled,'Manual skilled',139.4,1,0,0,1,0,1,18,0,15.5,2.8,-4.06,Graduate
2,42,1,9500,1,2,130,Basic,Basic,Low-skilled,Low-skilled,130,0,0,0,1,0,1,32,0,9.4,-0.8,-3.12,Graduate
1,1,3,9147,1,1,133,Basic,Basic,Low-skilled,Other/unknown,125,1,0,0,1,0,0,18,0,9.4,-0.8,-3.12,Graduate
1,42,1,9500,1,1,168,Basic,Secondary,Low-skilled,Clerical/service,133.4,1,0,0,1,0,0,23,0,15.5,2.8,-4.06,Graduate
1,1,1,9254,1,1,125,Basic,Basic,Low-skilled,'Manual skilled',121.5,0,0,0,1,0,1,21,0,13.9,-0.3,0.79,Graduate
1,1,1,9500,1,1,114,Basic,Basic,Clerical/service,High-skilled,112.6,1,0,0,1,0,0,19,0,16.2,0.3,-0.92,Graduate
1,1,4,9500,1,1,130,Basic,Basic,Low-skilled,'Manual skilled',119.9,1,0,0,1,0,0,18,0,12.4,0.5,1.79,Graduate
1,1,2,9085,1,1,151,Higher,Higher,High-skilled,High-skilled,144.5,1,0,0,1,0,0,18,0,8.9,1.4,3.51,Graduate
1,1,2,9773,1,1,122,Basic,Basic,Low-skilled,Low-skilled,130.8,1,0,0,1,0,0,18,0,9.4,-0.8,-3.12,Graduate
1,1,5,9238,1,1,126,Basic,Basic,Other/unknown,High-skilled,121.5,1,0,0,1,0,0,18,0,7.6,2.6,0.32,Graduate
1,17,1,9773,1,1,121,Basic,Basic,Low-skilled,Low-skilled,122.4,0,0,0,1,0,0,18,0,13.9,-0.3,0.79,Graduate
2,43,1,9670,1,1,100,Unknown,Unknown,Other/unknown,Other/unknown,128.2,0,0,0,1,1,0,32,0,7.6,2.6,0.32,Graduate
1,44,1,9003,1,39,160,Basic,Basic,Low-skilled,Low-skilled,160,0,0,0,1,1,1,22,0,16.2,0.3,-0.92,Graduate
1,16,3,9085,1,1,130,Basic,Basic,Low-skilled,High-skilled,119.5,1,0,0,1,0,1,18,0,15.5,2.8,-4.06,Graduate
1,18,1,9853,1,1,132,Basic,Basic,Low-skilled,Clerical/service,126.1,0,0,0,1,0,1,18,0,11.1,0.6,2.02,Graduate
1,1,1,8014,0,1,133.1,Higher,Secondary,High-skilled,'Manual skilled',100,0,0,0,1,0,0,26,0,16.2,0.3,-0.92,Graduate
1,39,1,9003,1,1,100,Basic,Basic,Low-skilled,Clerical/service,110,0,0,0,1,0,0,41,0,15.5,2.8,-4.06,Graduate
1,17,1,9670,1,1,123,Basic,Basic,High-skilled,High-skilled,114.6,0,0,0,1,0,0,18,0,9.4,-0.8,-3.12,Graduate
1,39,1,9670,1,1,120,Secondary,Basic,Clerical/service,Other/unknown,142.3,1,0,0,1,0,1,26,0,10.8,1.4,1.74,Graduate
1,17,1,9238,1,1,136,Basic,Secondary,Low-skilled,Clerical/service,129.7,0,0,0,1,0,0,19,0,15.5,2.8,-4.06,Graduate
1,1,1,9254,1,1,140,Basic,Secondary,Low-skilled,'Manual skilled',140.9,1,0,0,1,0,1,18,0,12.7,3.7,-1.7,Graduate
1,17,4,9254,1,1,113,Basic,Basic,'Manual skilled','Manual skilled',107.4,1,0,0,1,0,1,19,0,12.4,0.5,1.79,Graduate
1,1,2,9085,1,1,122,Secondary,Secondary,Low-skilled,Other/unknown,126.2,0,0,0,1,0,0,19,0,12.4,0.5,1.79,Graduate
1,43,1,9130,1,1,140,Higher,Secondary,High-skilled,High-skilled,140,1,0,0,1,0,0,22,0,12.7,3.7,-1.7,Graduate
1,1,1,9556,1,1,118,Basic,Basic,Low-skilled,Low-skilled,116.3,1,0,0,1,0,1,20,0,12.7,3.7,-1.7,Graduate
2,39,1,9773,1,19,133.1,Basic,Basic,'Manual skilled','Manual skilled',162,0,0,1,1,1,1,49,0,10.8,1.4,1.74,Graduate
1,1,3,9500,1,1,145,Basic,Basic,Low-skilled,'Manual skilled',136.3,1,0,0,1,0,1,18,0,12.7,3.7,-1.7,Graduate
1,1,2,9773,1,1,121,Secondary,Basic,Low-skilled,'Manual skilled',118.9,1,0,0,1,0,0,20,0,11.1,0.6,2.02,Graduate
1,39,1,8014,0,19,133.1,Basic,Basic,Low-skilled,'Manual skilled',106.5,0,0,0,1,0,1,32,0,12.7,3.7,-1.7,Graduate
1,18,1,9500,1,1,126,Basic,Basic,Clerical/service,Clerical/service,114.8,1,0,0,1,0,0,20,0,10.8,1.4,1.74,Graduate
4,39,1,8014,0,19,133.1,Basic,Basic,Low-skilled,Low-skilled,113.5,0,0,0,1,0,1,39,0,11.1,0.6,2.02,Graduate
1,1,5,9070,1,1,124,Basic,Basic,Low-skilled,Low-skilled,113.9,1,0,0,1,0,0,20,0,7.6,2.6,0.32,Graduate
1,17,4,9773,1,1,118,Secondary,Basic,Clerical/service,'Manual skilled',120.8,1,0,0,1,0,0,20,0,12.4,0.5,1.79,Graduate
1,1,3,9500,1,1,119,Basic,Basic,Low-skilled,Low-skilled,119.4,1,0,0,1,0,0,20,0,12.4,0.5,1.79,Graduate
1,53,1,9003,1,42,130,Secondary,Basic,Low-skilled,'Manual skilled',133.8,0,0,1,1,0,1,24,0,8.9,1.4,3.51,Graduate
1,7,1,9085,1,40,130,Secondary,Secondary,Clerical/service,Clerical/service,130,1,0,0,1,0,0,22,0,11.1,0.6,2.02,Graduate
1,17,4,9085,1,1,140,Basic,Basic,Clerical/service,'Manual skilled',123.7,0,0,0,1,0,0,19,0,9.4,-0.8,-3.12,Graduate
1,39,1,9500,1,1,123,Basic,Secondary,High-skilled,High-skilled,140.8,0,0,0,1,0,0,25,0,10.8,1.4,1.74,Graduate
5,43,1,9500,1,1,131,Secondary,Basic,Clerical/service,Clerical/service,118.8,0,0,0,1,0,1,18,0,12.7,3.7,-1.7,Graduate
1,17,4,9147,1,1,120,Basic,Basic,Low-skilled,Low-skilled,111.3,1,0,0,1,0,0,21,0,8.9,1.4,3.51,Graduate
2,43,1,9853,1,1,110,Basic,Basic,'Manual skilled','Manual skilled',100,0,0,0,1,1,0,40,0,13.9,-0.3,0.79,Graduate
1,39,1,9003,1,1,140,Basic,Basic,Clerical/service,Clerical/service,150,0,0,1,1,0,0,34,0,16.2,0.3,-0.92,Graduate
1,1,3,9085,1,1,130,Secondary,Basic,Low-skilled,Low-skilled,121.3,1,0,0,1,0,1,19,0,10.8,1.4,1.74,Graduate
1,17,2,9238,1,1,133,Basic,Basic,Low-skilled,Clerical/service,123.6,0,0,0,1,0,1,19,0,13.9,-0.3,0.79,Graduate
1,17,2,9500,1,1,146,Higher,Higher,High-skilled,'Manual skilled',133.4,1,0,0,1,0,0,18,0,13.9,-0.3,0.79,Graduate
1,1,1,9500,1,1,131,Higher,Higher,High-skilled,High-skilled,120.5,0,0,0,1,0,0,19,0,7.6,2.6,0.32,Graduate
1,1,3,9254,1,1,128,Basic,Secondary,'Manual skilled',Low-skilled,121.7,1,0,0,1,0,1,18,0,12.4,0.5,1.79,Graduate
1,1,1,9238,1,1,139,Basic,Basic,Low-skilled,Low-skilled,126.1,0,0,0,1,0,1,19,0,12.7,3.7,-1.7,Graduate
1,1,3,9500,1,1,129,Basic,Basic,Clerical/service,'Manual skilled',127.3,1,0,0,1,0,1,20,0,7.6,2.6,0.32,Graduate
1,1,5,9500,1,1,142,Basic,Basic,Clerical/service,'Manual skilled',128.8,1,0,0,1,0,0,18,0,7.6,2.6,0.32,Graduate
1,1,1,9500,1,1,139,Basic,Basic,Clerical/service,Clerical/service,125.5,0,0,0,1,0,1,21,0,12.7,3.7,-1.7,Graduate
1,17,1,8014,0,1,125,Basic,Basic,Clerical/service,'Manual skilled',122.2,1,0,1,1,0,0,19,0,10.8,1.4,1.74,Graduate
1,1,1,9254,1,1,144,Basic,Basic,Low-skilled,Low-skilled,142.6,1,0,0,1,0,1,18,0,15.5,2.8,-4.06,Graduate
1,1,1,9238,1,1,150,Basic,Basic,Clerical/service,Clerical/service,142.7,1,0,0,1,0,1,18,0,9.4,-0.8,-3.12,Graduate
1,18,1,9500,1,1,126,Basic,Basic,Clerical/service,Clerical/service,119.3,0,0,0,1,0,1,19,0,9.4,-0.8,-3.12,Graduate
1,1,1,9238,1,1,168,Basic,Basic,Low-skilled,Low-skilled,149.5,0,0,0,1,0,0,18,0,12.4,0.5,1.79,Graduate
1,18,1,8014,0,1,137,Secondary,Secondary,Clerical/service,High-skilled,123,0,0,1,1,0,0,20,0,16.2,0.3,-0.92,Graduate
1,1,1,9238,1,1,136,Basic,Basic,Low-skilled,Low-skilled,121.7,0,1,0,1,0,1,20,0,16.2,0.3,-0.92,Graduate
1,43,1,9773,1,1,132,Basic,Basic,Low-skilled,Low-skilled,125,1,0,0,1,1,1,20,0,12.4,0.5,1.79,Graduate
1,51,1,9070,1,1,130,Basic,Basic,Clerical/service,'Manual skilled',124.5,0,0,0,1,0,1,20,0,11.1,0.6,2.02,Graduate
1,17,1,9500,1,1,130,Secondary,Higher,Low-skilled,High-skilled,128.6,1,0,0,1,0,0,18,0,16.2,0.3,-0.92,Graduate
1,1,4,9773,1,1,132,Secondary,Secondary,Other/unknown,Clerical/service,129.9,1,0,0,1,0,0,18,1,7.6,2.6,0.32,Graduate
1,39,1,9500,1,1,100,Secondary,Basic,Clerical/service,'Manual skilled',122,0,0,0,1,0,0,24,0,10.8,1.4,1.74,Graduate
1,39,1,8014,0,1,130,Basic,Basic,Low-skilled,'Manual skilled',103.5,0,0,0,1,0,1,33,0,12.7,3.7,-1.7,Graduate
1,1,4,9500,1,1,142,Basic,Basic,High-skilled,High-skilled,125.5,1,0,0,1,0,0,18,0,12.7,3.7,-1.7,Graduate
1,1,1,9085,1,1,138,Secondary,Secondary,Clerical/service,'Manual skilled',132.1,1,0,0,1,0,0,19,0,10.8,1.4,1.74,Graduate
1,1,3,9500,1,1,150,Basic,Basic,High-skilled,High-skilled,130.8,1,0,0,1,0,0,18,0,12.7,3.7,-1.7,Graduate
1,17,2,9556,1,1,122,Basic,Basic,Clerical/service,'Manual skilled',118.3,1,0,0,1,0,1,19,0,15.5,2.8,-4.06,Graduate
1,1,1,9085,1,1,134,Basic,Basic,Low-skilled,Low-skilled,136.8,1,0,0,1,1,0,20,0,10.8,1.4,1.74,Graduate
1,1,1,171,1,1,137,Secondary,Basic,Clerical/service,Clerical/service,130.4,1,0,0,1,1,0,19,0,15.5,2.8,-4.06,Graduate
1,44,1,9070,1,39,120,Secondary,Basic,Clerical/service,Clerical/service,116.3,1,1,0,1,1,1,21,0,12.4,0.5,1.79,Graduate
1,10,1,9085,1,1,140,Basic,Basic,Clerical/service,Clerical/service,140,1,0,0,1,0,0,21,0,10.8,1.4,1.74,Graduate
1,42,1,9238,1,1,133.1,Secondary,Basic,Clerical/service,Low-skilled,134,0,0,0,1,0,0,21,0,7.6,2.6,0.32,Graduate
1,17,1,9085,1,1,142,Higher,Basic,Clerical/service,Clerical/service,130.8,1,0,0,1,0,0,18,0,12.7,3.7,-1.7,Graduate
1,1,3,9070,1,1,118,Higher,Higher,High-skilled,High-skilled,110,1,0,1,1,1,0,19,0,8.9,1.4,3.51,Graduate
1,53,1,9238,1,42,140,Basic,Basic,Low-skilled,Other/unknown,136.9,1,0,0,1,0,0,21,0,8.9,1.4,3.51,Graduate
1,1,2,9773,1,1,159,Secondary,Secondary,High-skilled,High-skilled,151,1,0,0,1,0,0,18,0,12.7,3.7,-1.7,Graduate
1,18,2,9500,1,1,131,Secondary,Higher,High-skilled,High-skilled,121.2,1,0,0,1,0,0,18,0,16.2,0.3,-0.92,Graduate
1,44,1,9085,1,39,140,Secondary,Basic,Clerical/service,Clerical/service,140,0,0,0,1,0,0,21,0,13.9,-0.3,0.79,Graduate
1,17,2,9500,1,1,145,Basic,Basic,Clerical/service,Low-skilled,130.5,1,0,0,1,0,0,18,0,10.8,1.4,1.74,Graduate
1,1,4,9070,1,1,167,Secondary,Secondary,'Manual skilled',High-skilled,158.3,1,0,0,1,0,0,18,0,15.5,2.8,-4.06,Graduate
1,1,3,9070,1,1,150,Secondary,Secondary,Clerical/service,'Manual skilled',131.5,1,0,0,1,0,0,20,0,7.6,2.6,0.32,Graduate
1,17,1,9500,1,1,128,Basic,Secondary,Clerical/service,High-skilled,117.2,1,0,0,1,0,0,20,0,16.2,0.3,-0.92,Graduate
1,17,1,9500,1,1,145,Higher,Higher,High-skilled,High-skilled,141.8,0,0,0,1,0,0,19,0,9.4,-0.8,-3.12,Graduate
1,1,1,9670,1,1,127,Higher,Basic,High-skilled,Low-skilled,127,1,0,0,1,1,0,18,0,12.4,0.5,1.79,Graduate
1,1,6,9500,1,1,118,Basic,Basic,High-skilled,High-skilled,113.5,1,0,0,1,1,0,18,0,12.4,0.5,1.79,Graduate
1,17,6,9500,1,1,143,Basic,Secondary,Low-skilled,Other/unknown,127.3,1,0,0,1,0,0,18,0,11.1,0.6,2.02,Graduate
1,17,3,9773,1,1,132,Secondary,Secondary,Clerical/service,Low-skilled,124.3,1,0,1,1,0,1,19,0,15.5,2.8,-4.06,Graduate
1,44,1,9147,1,39,117.4,Basic,Secondary,Clerical/service,Low-skilled,117.4,1,0,0,1,0,0,21,0,11.1,0.6,2.02,Graduate
1,18,2,9853,1,1,111,Basic,Basic,Low-skilled,'Manual skilled',105.8,1,0,0,1,0,0,19,0,8.9,1.4,3.51,Graduate
1,1,2,9773,1,1,131,Basic,Basic,Low-skilled,Other/unknown,121.9,1,0,0,1,0,1,18,0,11.1,0.6,2.02,Graduate
1,5,2,9070,1,1,143,Secondary,Secondary,Clerical/service,Other/unknown,146.2,1,0,0,1,1,0,18,0,16.2,0.3,-0.92,Graduate
1,1,4,9500,1,1,136,Secondary,Secondary,Low-skilled,Low-skilled,123.8,1,0,0,1,0,1,19,0,12.7,3.7,-1.7,Graduate
1,1,4,9500,1,1,140,Basic,Basic,'Manual skilled','Manual skilled',129.5,1,0,0,1,0,0,18,0,10.8,1.4,1.74,Graduate
1,43,2,9500,1,1,136,Basic,Basic,Low-skilled,Clerical/service,131.3,0,0,0,1,0,0,23,0,7.6,2.6,0.32,Graduate
1,44,1,9003,1,39,170,Basic,Basic,Low-skilled,'Manual skilled',170,1,0,1,1,1,0,21,0,12.4,0.5,1.79,Graduate
1,18,4,9254,1,1,119,Basic,Basic,Low-skilled,Low-skilled,113.1,1,0,0,0,1,0,22,0,15.5,2.8,-4.06,'Not on time'
1,1,1,9853,1,1,140,Basic,Basic,'Manual skilled','Manual skilled',124.6,1,0,0,1,0,0,18,0,16.2,0.3,-0.92,'Not on time'
1,44,1,9003,1,39,150,Higher,Higher,Clerical/service,High-skilled,150,0,0,0,1,1,0,21,0,16.2,0.3,-0.92,'Not on time'
1,44,1,9130,1,39,120,Higher,Higher,High-skilled,'Manual skilled',120,0,0,1,0,0,0,20,1,12.4,0.5,1.79,'Not on time'
1,1,1,9500,1,1,139,Basic,Basic,'Manual skilled','Manual skilled',121.3,1,0,0,1,0,1,19,0,9.4,-0.8,-3.12,'Not on time'
1,1,3,171,1,1,125,Basic,Basic,Clerical/service,Low-skilled,115.2,1,0,0,1,0,0,18,0,7.6,2.6,0.32,'Not on time'
1,1,3,9147,1,1,125,Secondary,Basic,'Manual skilled','Manual skilled',120.1,0,0,1,1,1,0,19,0,16.2,0.3,-0.92,'Not on time'
1,17,3,9147,1,1,120,Basic,Basic,Clerical/service,'Manual skilled',115.5,1,0,1,1,1,0,18,0,10.8,1.4,1.74,'Not on time'
1,17,1,9254,1,1,120,Basic,Basic,Clerical/service,Clerical/service,125.5,0,0,0,1,1,0,18,0,12.7,3.7,-1.7,'Not on time'
2,39,1,9853,1,10,133.1,Basic,Unknown,Other/unknown,Other/unknown,115.5,0,0,0,1,0,0,39,0,7.6,2.6,0.32,'Not on time'
2,39,1,8014,0,1,130,Basic,Basic,'Manual skilled',Clerical/service,113.5,1,0,0,1,0,0,36,0,9.4,-0.8,-3.12,'Not on time'
1,17,2,9853,1,1,133.1,Basic,Secondary,Low-skilled,High-skilled,107,1,0,0,1,0,0,20,0,16.2,0.3,-0.92,'Not on time'
1,17,1,9147,1,1,120,Basic,Basic,High-skilled,High-skilled,113.4,0,0,0,1,0,0,20,0,12.4,0.5,1.79,'Not on time'
1,1,3,9500,1,1,138,Basic,Basic,Clerical/service,'Manual skilled',124.9,1,0,0,1,0,1,18,0,13.9,-0.3,0.79,'Not on time'
1,1,4,9254,1,1,132,Secondary,Basic,Low-skilled,Low-skilled,124.7,1,0,0,1,0,0,19,0,7.6,2.6,0.32,'Not on time'
1,1,1,9853,1,1,129,Basic,Basic,'Manual skilled','Manual skilled',138.1,0,0,0,1,0,0,19,0,7.6,2.6,0.32,'Not on time'
1,39,1,9085,1,1,130,Basic,Basic,Low-skilled,'Manual skilled',130,1,0,0,1,0,0,28,0,12.7,3.7,-1.7,'Not on time'
1,7,1,9500,1,3,140,Secondary,Secondary,Low-skilled,Clerical/service,140,0,0,0,1,0,0,33,0,16.2,0.3,-0.92,'Not on time'
1,18,2,9147,1,1,132,Higher,Higher,Clerical/service,'Manual skilled',119.1,1,0,1,0,0,0,20,0,10.8,1.4,1.74,'Not on time'
1,51,1,9853,1,1,139,Secondary,Secondary,Clerical/service,Other/unknown,134,0,0,0,1,0,0,21,0,12.4,0.5,1.79,'Not on time'
1,39,1,9991,0,1,133.1,Basic,Basic,Low-skilled,Low-skilled,126.3,0,0,0,1,0,1,26,0,16.2,0.3,-0.92,'Not on time'
1,1,3,9254,1,1,115,Secondary,Secondary,High-skilled,High-skilled,117.5,1,0,0,1,0,0,18,0,9.4,-0.8,-3.12,'Not on time'
1,39,1,9085,1,19,133.1,Basic,Basic,Low-skilled,'Manual skilled',140,0,0,1,0,0,0,24,0,16.2,0.3,-0.92,'Not on time'
1,1,3,9070,1,1,125,Basic,Basic,Low-skilled,Low-skilled,125.4,1,0,0,1,0,0,19,0,9.4,-0.8,-3.12,'Not on time'
1,43,1,9238,1,1,124,Secondary,Secondary,High-skilled,High-skilled,118.8,1,0,1,0,0,0,22,0,16.2,0.3,-0.92,'Not on time'
2,7,1,9130,1,3,140,Higher,Higher,High-skilled,Other/unknown,140,0,0,1,0,0,0,29,0,7.6,2.6,0.32,'Not on time'
1,51,1,9670,1,1,136,Basic,Basic,Clerical/service,Clerical/service,122,0,0,1,0,0,0,18,0,9.4,-0.8,-3.12,'Not on time'
1,17,1,9853,1,1,133.1,Unknown,Unknown,Other/unknown,Other/unknown,118.9,1,0,0,1,0,0,21,0,7.6,2.6,0.32,'Not on time'
1,1,1,9853,1,1,132,Higher,Basic,Clerical/service,Clerical/service,125,1,0,0,1,0,0,18,0,9.4,-0.8,-3.12,'Not on time'
1,1,1,171,1,1,188,Higher,Higher,High-skilled,High-skilled,178.3,1,0,0,1,0,0,18,0,15.5,2.8,-4.06,'Not on time'
1,1,4,171,1,1,127,Secondary,Secondary,Low-skilled,Clerical/service,124.2,1,0,0,0,0,0,19,0,9.4,-0.8,-3.12,'Not on time'
1,1,1,9773,1,1,146,Basic,Basic,Low-skilled,'Manual skilled',128.5,0,0,1,1,0,0,19,0,10.8,1.4,1.74,'Not on time'
4,39,1,9991,0,1,130,Basic,Basic,Low-skilled,'Manual skilled',148,0,0,0,1,0,1,31,0,13.9,-0.3,0.79,'Not on time'
1,44,1,9085,1,39,140,Basic,Basic,Clerical/service,'Manual skilled',140,1,0,0,1,0,0,21,0,16.2,0.3,-0.92,'Not on time'
1,44,1,9085,1,39,140,Higher,Basic,Clerical/service,Clerical/service,140,1,0,0,1,0,0,21,0,12.4,0.5,1.79,'Not on time'
1,17,1,9147,1,1,96,Basic,Basic,'Manual skilled',Clerical/service,96,1,0,0,1,0,0,19,0,16.2,0.3,-0.92,'Not on time'
4,39,1,9085,1,1,133.1,Unknown,Unknown,Other/unknown,Other/unknown,128.2,0,0,0,1,0,0,25,0,7.6,2.6,0.32,'Not on time'
3,1,2,9085,1,1,135,Basic,Secondary,Clerical/service,Clerical/service,129.4,1,0,0,1,0,0,21,0,10.8,1.4,1.74,'Not on time'
1,43,1,9130,1,1,127,Basic,Basic,Clerical/service,Clerical/service,120.7,1,0,1,1,0,0,18,0,12.7,3.7,-1.7,'Not on time'
1,43,1,9853,1,1,140,Basic,Basic,Low-skilled,'Manual skilled',122.3,0,0,0,1,0,0,22,0,12.7,3.7,-1.7,'Not on time'
1,39,1,9254,1,9,133.1,Unknown,Unknown,Other/unknown,Other/unknown,110,1,0,0,0,0,0,28,0,7.6,2.6,0.32,'Not on time'
1,44,1,9085,1,39,140,Basic,Basic,Low-skilled,'Manual skilled',140,0,0,0,1,0,0,20,0,13.9,-0.3,0.79,'Not on time'
1,7,3,9130,1,3,130,Basic,Basic,Other/unknown,Clerical/service,130,0,0,1,0,0,0,27,0,12.7,3.7,-1.7,'Not on time'
1,39,1,9500,1,19,133.1,Basic,Basic,Clerical/service,'Manual skilled',143.7,0,0,0,1,0,0,27,0,12.4,0.5,1.79,'Not on time'
2,39,1,8014,0,1,120,Unknown,Unknown,Other/unknown,Other/unknown,101.8,0,0,0,0,0,0,32,0,10.8,1.4,1.74,'Not on time'
4,39,1,8014,0,19,133.1,Unknown,Unknown,Other/unknown,Other/unknown,100,0,0,0,1,0,0,48,0,9.4,-0.8,-3.12,'Not on time'
1,39,1,9147,1,1,110,Basic,Basic,Low-skilled,Low-skilled,110.3,0,0,1,0,1,0,26,0,10.8,1.4,1.74,'Not on time'
1,39,1,9119,1,1,150,Higher,Higher,Clerical/service,Clerical/service,150,1,0,0,1,1,0,27,0,8.9,1.4,3.51,'Not on time'
1,39,1,9119,1,40,120,Secondary,Secondary,Clerical/service,Other/unknown,146.8,0,0,0,1,1,0,25,0,16.2,0.3,-0.92,'Not on time'
1,43,1,9070,1,1,115,Secondary,Secondary,High-skilled,Other/unknown,115,0,0,1,1,1,0,21,0,15.5,2.8,-4.06,'Not on time'
1,44,1,9254,1,39,130,Secondary,Secondary,Low-skilled,Low-skilled,130,1,0,1,1,1,0,23,0,8.9,1.4,3.51,'Not on time'
1,1,1,9147,1,1,130,Basic,Basic,Low-skilled,Low-skilled,124.8,1,0,0,1,1,0,22,0,7.6,2.6,0.32,'Not on time'
1,39,1,8014,0,1,133.1,Unknown,Higher,Other/unknown,High-skilled,118.5,1,0,0,1,0,0,31,0,7.6,2.6,0.32,'Not on time'
1,39,1,9991,0,3,120,Basic,Basic,Low-skilled,Low-skilled,141,0,0,0,1,0,0,29,0,10.8,1.4,1.74,'Not on time'
1,1,3,171,1,1,115,Secondary,Secondary,'Manual skilled','Manual skilled',108.7,1,0,0,0,0,0,21,0,9.4,-0.8,-3.12,'Not on time'
1,44,1,9085,1,39,140,Higher,Secondary,High-skilled,High-skilled,140,1,0,0,1,0,0,19,0,12.4,0.5,1.79,'Not on time'
1,1,2,9853,1,1,117,Secondary,Basic,Clerical/service,Low-skilled,109.7,1,0,0,1,0,0,19,0,9.4,-0.8,-3.12,'Not on time'
1,1,1,9147,1,1,129,Basic,Basic,Clerical/service,Low-skilled,121,1,0,0,1,0,0,18,0,7.6,2.6,0.32,'Not on time'
1,53,1,9085,1,42,140,Secondary,Secondary,Clerical/service,Clerical/service,143.3,1,0,0,0,0,0,23,0,8.9,1.4,3.51,'Not on time'
1,17,2,9773,1,1,126,Basic,Basic,Clerical/service,Clerical/service,129.5,1,0,1,0,0,0,18,0,10.8,1.4,1.74,'Not on time'
2,39,1,9773,1,19,100,Basic,Basic,Other/unknown,Other/unknown,163.5,0,0,1,0,1,0,50,0,10.8,1.4,1.74,'Not on time'
4,39,1,9130,1,19,133.1,Basic,Basic,Low-skilled,Clerical/service,100.9,0,0,0,1,1,0,48,0,15.5,2.8,-4.06,'Not on time'
1,43,1,9119,1,1,140,Basic,Basic,Clerical/service,'Manual skilled',146.5,0,0,0,1,1,0,39,0,13.9,-0.3,0.79,'Not on time'
5,39,1,9991,0,1,120,Basic,Basic,Low-skilled,Low-skilled,138.1,0,0,0,1,1,1,37,0,16.2,0.3,-0.92,'Not on time'
4,39,1,9670,1,1,140,Higher,Secondary,High-skilled,Low-skilled,170,0,0,1,0,1,0,53,0,12.7,3.7,-1.7,'Not on time'
1,39,1,8014,0,1,140,Basic,Basic,Other/unknown,Clerical/service,115.5,0,0,0,0,1,0,33,0,10.8,1.4,1.74,'Not on time'
4,39,1,9130,1,1,140,Basic,Basic,'Manual skilled','Manual skilled',150,1,0,0,1,1,0,34,0,16.2,0.3,-0.92,'Not on time'
1,1,1,9070,1,1,124,Basic,Basic,Low-skilled,'Manual skilled',113.9,1,0,0,1,1,0,18,0,12.4,0.5,1.79,'Not on time'
1,39,1,9670,1,6,133.1,Secondary,Secondary,Other/unknown,High-skilled,107,1,0,0,1,1,0,30,0,7.6,2.6,0.32,'Not on time'
1,5,1,171,1,1,137,Higher,Basic,High-skilled,Other/unknown,144.7,1,0,0,1,1,0,20,0,16.2,0.3,-0.92,'Not on time'
1,1,3,9500,1,1,136,Secondary,Basic,Clerical/service,Low-skilled,131.1,1,0,0,1,0,0,19,0,15.5,2.8,-4.06,'Not on time'
1,17,1,9670,1,1,113,Secondary,Secondary,Clerical/service,Clerical/service,106.7,1,0,1,1,0,0,20,0,15.5,2.8,-4.06,'Not on time'
1,53,1,9070,1,42,130,Higher,Basic,High-skilled,Clerical/service,130,1,0,0,0,0,1,22,0,8.9,1.4,3.51,'Not on time'
1,1,5,9070,1,1,123,Higher,Secondary,Low-skilled,High-skilled,121.3,1,0,0,1,0,0,20,0,12.4,0.5,1.79,'Not on time'
1,1,1,9085,1,1,140,Secondary,Basic,Clerical/service,'Manual skilled',131.6,1,0,0,1,0,0,20,1,12.4,0.5,1.79,'Not on time'
1,43,1,9130,1,1,120,Secondary,Higher,Low-skilled,High-skilled,120,0,0,1,1,0,0,21,1,10.8,1.4,1.74,'Not on time'
1,51,1,9556,1,1,131,Secondary,Basic,Clerical/service,Low-skilled,126.6,1,0,0,1,1,0,23,0,8.9,1.4,3.51,'Not on time'
1,1,1,171,1,1,115,Basic,Basic,Low-skilled,'Manual skilled',129,1,0,1,0,0,1,23,0,9.4,-0.8,-3.12,'Not on time'
1,1,1,9238,1,1,127,Secondary,Basic,Clerical/service,High-skilled,141.7,1,0,0,1,1,0,22,0,10.8,1.4,1.74,'Not on time'
1,39,2,9147,1,12,133.1,Basic,Basic,Low-skilled,Low-skilled,120,1,0,1,0,1,0,28,0,9.4,-0.8,-3.12,'Not on time'
1,39,1,9119,1,19,133.1,Basic,Basic,High-skilled,'Manual skilled',96.7,0,0,0,1,1,1,29,0,12.4,0.5,1.79,'Not on time'
1,44,1,9070,1,39,120,Basic,Secondary,Low-skilled,High-skilled,120,1,0,0,1,1,0,23,0,16.2,0.3,-0.92,'Not on time'
2,44,1,9991,0,39,130,Secondary,Basic,Clerical/service,Low-skilled,130,0,0,0,0,0,0,21,0,15.5,2.8,-4.06,'Not on time'
1,17,5,9238,1,1,130,Basic,Secondary,Clerical/service,Clerical/service,130,1,0,0,1,0,0,20,0,9.4,-0.8,-3.12,'Not on time'
2,39,1,8014,0,9,133.1,Basic,Basic,'Manual skilled',Other/unknown,100,1,0,0,1,0,0,37,0,9.4,-0.8,-3.12,'Not on time'
2,39,1,8014,0,1,133.1,Basic,Basic,'Manual skilled','Manual skilled',100,0,0,1,1,0,0,37,0,13.9,-0.3,0.79,'Not on time'
1,39,1,9500,1,1,100,Higher,Secondary,High-skilled,Clerical/service,121.3,1,0,0,1,0,0,34,0,10.8,1.4,1.74,'Not on time'
2,39,1,9238,1,19,133.1,Basic,Basic,Low-skilled,Low-skilled,130,1,0,0,1,0,0,31,0,9.4,-0.8,-3.12,'Not on time'
1,18,5,9500,1,1,137,Basic,Secondary,High-skilled,Other/unknown,129.3,0,0,0,1,0,0,19,0,9.4,-0.8,-3.12,'Not on time'
1,1,2,9119,1,1,149,Basic,Basic,Clerical/service,Clerical/service,141,0,0,0,1,1,0,18,0,7.6,2.6,0.32,'Not on time'
4,42,1,9147,1,1,133.1,Basic,Basic,'Manual skilled',High-skilled,123,1,0,0,1,1,0,33,0,7.6,2.6,0.32,'Not on time'
2,39,1,9991,0,1,100,Basic,Basic,Clerical/service,Clerical/service,113,0,0,0,1,1,1,41,0,8.9,1.4,3.51,'Not on time'
1,17,2,9085,1,1,133.1,Basic,Basic,Low-skilled,High-skilled,100,1,0,1,0,1,0,19,0,12.4,0.5,1.79,'Not on time'
1,17,3,9070,1,1,132,Basic,Secondary,Clerical/service,Clerical/service,124.3,0,1,0,1,0,0,18,0,15.5,2.8,-4.06,'Not on time'
1,17,4,9670,1,1,110,Basic,Basic,Low-skilled,Other/unknown,106.1,1,1,1,0,0,1,18,0,12.7,3.7,-1.7,'Not on time'
1,17,1,9238,1,1,125,Secondary,Basic,Low-skilled,'Manual skilled',119.8,0,0,0,1,0,0,18,0,11.1,0.6,2.02,'Not on time'
1,1,2,9500,1,1,131,Secondary,Basic,Clerical/service,Clerical/service,126.1,1,0,0,1,0,1,19,0,11.1,0.6,2.02,'Not on time'
1,7,1,8014,0,40,130,Basic,Secondary,Clerical/service,Other/unknown,130,1,0,1,0,0,0,23,0,13.9,-0.3,0.79,'Not on time'
1,51,1,9070,1,1,117,Higher,Secondary,High-skilled,Other/unknown,120,1,0,0,1,0,0,21,0,8.9,1.4,3.51,'Not on time'
1,18,4,9773,1,1,130,Basic,Basic,Clerical/service,Clerical/service,121.3,1,0,0,1,0,0,20,0,15.5,2.8,-4.06,'Not on time'
1,1,2,9853,1,1,121,Basic,Basic,'Manual skilled',Clerical/service,120,1,0,0,1,0,0,18,0,10.8,1.4,1.74,'Not on time'
1,1,2,9500,1,1,113,Basic,Basic,Low-skilled,'Manual skilled',106.7,1,0,0,1,0,1,20,0,11.1,0.6,2.02,'Not on time'
1,1,1,9147,1,1,138,Basic,Basic,Low-skilled,'Manual skilled',131,1,0,0,1,0,0,19,0,12.4,0.5,1.79,'Not on time'
1,1,1,9670,1,1,128,Secondary,Secondary,High-skilled,High-skilled,130.8,1,0,0,1,0,0,20,0,7.6,2.6,0.32,'Not on time'
1,17,3,9147,1,1,112,Secondary,Basic,High-skilled,Clerical/service,107.8,1,0,0,1,0,0,19,0,10.8,1.4,1.74,'Not on time'
1,39,1,9500,1,1,110,Basic,Basic,Low-skilled,Low-skilled,130,0,0,1,0,0,0,32,0,16.2,0.3,-0.92,'Not on time'
1,17,4,9254,1,1,130,Basic,Secondary,Clerical/service,Clerical/service,130,1,0,0,1,1,0,18,0,16.2,0.3,-0.92,'Not on time'
2,7,1,9500,1,3,120,Basic,Basic,Low-skilled,'Manual skilled',120,1,0,0,1,0,0,45,0,13.9,-0.3,0.79,'Not on time'
1,42,1,9853,1,1,120,Secondary,Basic,Clerical/service,Clerical/service,113.9,1,0,0,1,0,0,21,0,12.7,3.7,-1.7,'Not on time'
2,39,1,9003,1,1,120,Basic,Basic,Low-skilled,Low-skilled,125.7,0,0,1,0,0,0,43,0,8.9,1.4,3.51,'Not on time'
2,39,1,9991,0,19,133.1,Basic,Secondary,Clerical/service,High-skilled,121.7,0,0,1,0,0,0,31,0,16.2,0.3,-0.92,'Not on time'
1,43,1,9991,0,1,120,Basic,Basic,Low-skilled,Low-skilled,128.2,0,0,0,0,1,0,32,0,10.8,1.4,1.74,'Not on time'
1,1,3,9238,1,1,117,Basic,Basic,Low-skilled,Low-skilled,117,1,0,1,1,0,0,19,0,12.4,0.5,1.79,'Not on time'
1,42,1,9119,1,1,130,Basic,Basic,Low-skilled,High-skilled,135,0,0,1,1,1,0,25,0,13.9,-0.3,0.79,'Not on time'
2,1,1,9147,1,1,151,Basic,Basic,Low-skilled,'Manual skilled',132.1,1,0,0,1,0,0,34,0,7.6,2.6,0.32,'Not on time'
1,17,2,9853,1,1,127,Basic,Basic,High-skilled,High-skilled,121.1,1,0,0,1,1,0,19,0,12.4,0.5,1.79,'Not on time'
2,39,1,8014,0,19,133.1,Secondary,Secondary,Clerical/service,Clerical/service,130,0,0,0,1,1,0,24,0,16.2,0.3,-0.92,'Not on time'
1,1,5,9254,1,1,120,Higher,Basic,High-skilled,Low-skilled,114.8,1,0,0,0,1,0,19,0,8.9,1.4,3.51,'Not on time'
1,43,1,9254,1,1,130,Secondary,Basic,Clerical/service,'Manual skilled',130,0,0,0,1,0,1,19,0,10.8,1.4,1.74,'Not on time'
1,1,1,9085,1,1,120,Higher,Secondary,High-skilled,Low-skilled,113.4,0,0,0,1,0,0,18,0,11.1,0.6,2.02,'Not on time'
1,17,1,9147,1,1,147,Basic,Basic,Low-skilled,'Manual skilled',142.8,1,0,1,0,0,1,19,0,11.1,0.6,2.02,'Not on time'
1,17,2,9853,1,1,145,Basic,Basic,Clerical/service,Low-skilled,127.9,1,0,0,1,0,0,19,0,10.8,1.4,1.74,'Not on time'
1,17,1,171,1,1,128,Secondary,Secondary,Clerical/service,Other/unknown,134.7,0,0,0,0,1,0,19,0,10.8,1.4,1.74,'Not on time'
1,51,1,9119,1,1,136,Secondary,Basic,High-skilled,Clerical/service,133.6,1,0,0,1,1,0,20,0,11.1,0.6,2.02,'Not on time'
1,1,5,9070,1,1,117,Basic,Basic,Clerical/service,Clerical/service,131,1,0,1,0,1,0,21,0,9.4,-0.8,-3.12,'Not on time'
1,17,6,9119,1,1,129,Basic,Secondary,Clerical/service,Other/unknown,117.1,1,0,0,1,1,0,19,0,7.6,2.6,0.32,'Not on time'
1,44,1,9147,1,39,130,Higher,Basic,High-skilled,'Manual skilled',130,0,0,1,0,1,0,25,1,15.5,2.8,-4.06,'Not on time'
1,1,2,9773,1,1,122,Basic,Basic,Low-skilled,Low-skilled,126.9,1,0,0,1,0,1,19,0,9.4,-0.8,-3.12,'Not on time'
1,1,2,9130,1,1,140,Basic,Basic,Low-skilled,Low-skilled,129.5,1,0,0,1,0,0,18,0,12.7,3.7,-1.7,'Not on time'
1,1,2,9500,1,1,130,Secondary,Basic,Low-skilled,Low-skilled,125.1,1,0,0,1,0,1,18,0,11.1,0.6,2.02,'Not on time'
1,1,1,171,1,1,114,Higher,Basic,High-skilled,Clerical/service,111.9,0,0,0,0,1,0,18,0,9.4,-0.8,-3.12,'Not on time'
1,1,1,9119,1,1,121,Higher,Secondary,High-skilled,High-skilled,114,0,0,0,1,1,0,20,0,7.6,2.6,0.32,'Not on time'
1,18,1,9147,1,1,119,Basic,Basic,'Manual skilled','Manual skilled',112,1,0,0,0,1,0,20,0,9.4,-0.8,-3.12,'Not on time'
1,17,2,9119,1,1,120,Secondary,Secondary,Low-skilled,Low-skilled,120.4,1,0,0,1,1,0,20,0,10.8,1.4,1.74,'Not on time'
1,17,1,9119,1,1,131,Secondary,Higher,Low-skilled,Other/unknown,123.7,1,0,0,1,1,0,20,0,10.8,1.4,1.74,'Not on time'
1,17,1,9670,1,1,133.1,Secondary,Basic,Clerical/service,Low-skilled,96,1,0,0,1,0,1,25,0,15.5,2.8,-4.06,'Not on time'
1,1,1,9670,1,1,126,Secondary,Secondary,Other/unknown,Other/unknown,119,1,0,1,1,1,0,20,0,10.8,1.4,1.74,'Not on time'
1,43,1,9500,1,1,140,Secondary,Secondary,'Manual skilled','Manual skilled',128.2,0,0,0,1,0,0,39,1,12.7,3.7,-1.7,'Not on time'
1,1,1,171,1,1,133,Basic,Basic,Low-skilled,'Manual skilled',141.4,0,0,0,1,1,1,20,0,13.9,-0.3,0.79,'Not on time'
1,1,1,171,1,1,134,Higher,Higher,High-skilled,High-skilled,141.7,1,0,0,1,1,0,18,0,7.6,2.6,0.32,'Not on time'
2,44,1,9991,0,39,140,Basic,Basic,Low-skilled,Low-skilled,140,0,0,0,1,0,0,41,0,9.4,-0.8,-3.12,'Not on time'
2,39,1,9853,1,12,133.1,Basic,Basic,'Manual skilled','Manual skilled',103,0,0,0,1,0,0,41,0,16.2,0.3,-0.92,'Not on time'
2,39,1,9991,0,9,133.1,Unknown,Unknown,Other/unknown,Other/unknown,118.4,0,0,0,0,0,0,39,0,7.6,2.6,0.32,'Not on time'
1,16,1,171,1,1,150,Basic,Basic,Low-skilled,Low-skilled,134.6,1,0,0,1,1,0,19,0,7.6,2.6,0.32,'Not on time'
1,15,1,9556,1,1,137,Basic,Secondary,Low-skilled,Clerical/service,137,0,0,1,1,0,0,19,1,8.9,1.4,3.51,'Not on time'
5,39,1,9003,1,1,133.1,Basic,Basic,Low-skilled,'Manual skilled',110,0,0,1,0,0,0,28,0,13.9,-0.3,0.79,'Not on time'
1,16,2,9070,1,1,133,Secondary,Higher,Clerical/service,High-skilled,122.5,1,0,0,1,0,0,18,0,7.6,2.6,0.32,'Not on time'
1,17,1,9254,1,1,119,Basic,Basic,Clerical/service,Clerical/service,118,1,0,0,1,1,0,19,0,10.8,1.4,1.74,'Not on time'
1,17,1,9147,1,1,118,Secondary,Basic,Low-skilled,Low-skilled,118.4,1,0,0,1,1,0,19,0,12.4,0.5,1.79,'Not on time'
1,17,6,9670,1,1,110,Secondary,Basic,Clerical/service,Other/unknown,111.3,0,0,0,1,1,0,21,0,15.5,2.8,-4.06,'Not on time'
1,1,1,9147,1,1,160,Secondary,Basic,Clerical/service,'Manual skilled',141.5,1,0,0,1,1,0,18,0,9.4,-0.8,-3.12,'Not on time'
1,1,2,9773,1,1,130,Basic,Secondary,Low-skilled,Low-skilled,126.9,1,0,0,1,0,1,19,1,11.1,0.6,2.02,'Not on time'
1,44,1,9991,0,39,130,Basic,Basic,Clerical/service,Clerical/service,130,1,0,0,1,1,0,32,0,9.4,-0.8,-3.12,'Not on time'
1,39,1,9670,1,9,133.1,Basic,Basic,Clerical/service,High-skilled,110,0,0,1,1,1,0,26,0,9.4,-0.8,-3.12,'Not on time'
1,7,1,9991,0,40,120,Higher,Higher,High-skilled,High-skilled,120,0,0,0,1,0,0,27,0,11.1,0.6,2.02,'Not on time'
1,44,1,9070,1,39,100,Secondary,Basic,Clerical/service,'Manual skilled',104.8,0,0,1,0,0,0,22,0,12.4,0.5,1.79,'Not on time'
1,39,1,9500,1,1,133.1,Secondary,Basic,Low-skilled,Low-skilled,100,0,0,0,1,1,0,28,0,16.2,0.3,-0.92,'Not on time'
1,7,1,9556,1,3,140,Higher,Higher,High-skilled,High-skilled,140,0,0,1,0,1,0,38,0,13.9,-0.3,0.79,'Not on time'
1,1,1,9147,1,1,131,Higher,Basic,High-skilled,Other/unknown,123.3,0,0,0,1,1,0,19,0,16.2,0.3,-0.92,'Not on time'
1,17,6,9773,1,1,131,Unknown,Unknown,Other/unknown,Other/unknown,129.3,0,0,0,1,1,0,18,0,7.6,2.6,0.32,'Not on time'
1,44,1,9991,0,39,130,Basic,Basic,Low-skilled,Low-skilled,130,0,0,0,1,0,0,31,0,9.4,-0.8,-3.12,'Not on time'
1,39,1,9991,0,19,133.1,Higher,Secondary,High-skilled,Clerical/service,100,0,0,0,1,1,0,24,0,16.2,0.3,-0.92,'Not on time'
2,39,1,9119,1,1,120,Basic,Basic,Low-skilled,Other/unknown,145.4,0,0,1,1,1,0,40,0,16.2,0.3,-0.92,'Not on time'
1,18,1,9130,1,1,146,Higher,Higher,Clerical/service,High-skilled,137.8,0,0,0,1,1,0,18,0,13.9,-0.3,0.79,'Not on time'
1,44,1,9085,1,39,130,Secondary,Secondary,Clerical/service,Clerical/service,130,1,1,0,1,1,0,26,0,15.5,2.8,-4.06,'Not on time'
1,44,1,9003,1,1,120,Higher,Higher,High-skilled,'Manual skilled',120,1,0,0,1,1,0,21,0,12.7,3.7,-1.7,'Not on time'
1,17,1,171,1,1,145,Higher,Higher,High-skilled,High-skilled,143.6,0,0,1,1,1,0,19,0,8.9,1.4,3.51,'Not on time'
1,44,1,9254,1,39,170,Basic,Higher,Low-skilled,High-skilled,170,0,0,0,0,1,0,26,0,11.1,0.6,2.02,'Not on time'
1,42,1,9003,1,1,140,Basic,Basic,Clerical/service,Clerical/service,140,1,0,0,1,1,0,25,0,15.5,2.8,-4.06,'Not on time'
1,39,1,9500,1,1,130,Basic,Basic,High-skilled,'Manual skilled',143.8,0,0,0,1,1,0,27,0,10.8,1.4,1.74,'Not on time'
1,1,1,9070,1,1,116,Higher,Higher,Other/unknown,High-skilled,108.7,1,0,0,1,1,0,23,0,7.6,2.6,0.32,'Not on time'
1,1,3,9085,1,1,126,Basic,Secondary,Low-skilled,Low-skilled,132,1,0,0,1,0,1,18,0,9.4,-0.8,-3.12,'Not on time'
1,51,1,9147,1,19,133.1,Basic,Basic,Low-skilled,Clerical/service,112.1,0,0,1,0,1,0,38,0,8.9,1.4,3.51,'Not on time'
2,51,1,9500,1,1,130,Basic,Basic,Clerical/service,Clerical/service,120,0,0,0,1,1,0,44,0,11.1,0.6,2.02,'Not on time'
1,43,1,9085,1,1,130,Basic,Basic,Clerical/service,Low-skilled,130,1,0,0,0,0,0,19,0,13.9,-0.3,0.79,'Not on time'
1,7,1,9500,1,3,120,Basic,Basic,Clerical/service,Clerical/service,120,0,0,1,0,0,0,28,0,13.9,-0.3,0.79,'Not on time'
1,10,1,9773,1,1,151,Basic,Basic,Other/unknown,Clerical/service,151,1,0,0,1,0,0,18,1,9.4,-0.8,-3.12,'Not on time'
2,39,1,9991,0,1,140,Basic,Secondary,Low-skilled,Other/unknown,130,1,0,0,1,1,0,41,0,9.4,-0.8,-3.12,'Not on time'
4,39,2,9670,1,19,133.1,Basic,Secondary,Other/unknown,Other/unknown,103,0,0,0,0,1,0,34,0,10.8,1.4,1.74,'Not on time'
1,1,1,9130,1,1,140,Secondary,Basic,Clerical/service,Clerical/service,131.2,0,0,0,1,1,1,26,0,7.6,2.6,0.32,'Not on time'
1,39,1,8014,0,1,133.1,Unknown,Unknown,Other/unknown,Other/unknown,97.5,1,0,0,1,1,0,29,0,7.6,2.6,0.32,'Not on time'
1,39,1,9003,1,1,140,Basic,Basic,Low-skilled,Clerical/service,140,0,0,0,1,1,0,35,0,13.9,-0.3,0.79,'Not on time'
1,1,1,9130,1,1,152,Higher,Secondary,Clerical/service,High-skilled,146.1,1,0,0,1,0,0,18,0,10.8,1.4,1.74,'Not on time'
1,17,1,9853,1,1,112,Higher,Basic,High-skilled,Low-skilled,106.1,1,0,0,1,0,0,19,0,15.5,2.8,-4.06,'Not on time'
1,17,1,9670,1,1,127,Secondary,Basic,Clerical/service,'Manual skilled',125.6,0,0,1,1,0,1,18,0,15.5,2.8,-4.06,'Not on time'
1,43,2,9254,1,1,140,Basic,Basic,Low-skilled,Low-skilled,126,1,0,0,1,0,0,19,0,10.8,1.4,1.74,'Not on time'
1,53,1,9085,1,42,130,Basic,Secondary,Low-skilled,Low-skilled,130,1,0,1,0,0,0,24,0,8.9,1.4,3.51,'Not on time'
1,17,2,9670,1,1,129,Basic,Basic,Clerical/service,Clerical/service,129.4,0,0,0,1,0,1,19,0,10.8,1.4,1.74,'Not on time'
1,1,5,9670,1,1,120,Higher,Secondary,Clerical/service,Other/unknown,112,1,0,0,1,0,0,18,0,8.9,1.4,3.51,'Not on time'
1,39,1,9254,1,1,133.1,Secondary,Secondary,Low-skilled,'Manual skilled',105,1,0,1,0,0,0,24,0,8.9,1.4,3.51,'Not on time'
5,39,1,9853,1,19,133.1,Basic,Secondary,Clerical/service,High-skilled,105.5,0,0,1,1,0,0,33,0,7.6,2.6,0.32,'Not on time'
1,39,1,9853,1,1,140,Basic,Secondary,Low-skilled,Clerical/service,128.2,0,0,0,0,0,0,30,0,12.7,3.7,-1.7,'Not on time'
2,39,2,9991,0,1,100,Basic,Basic,Low-skilled,Low-skilled,100,1,0,0,1,1,0,51,0,12.7,3.7,-1.7,'Not on time'
1,1,2,9500,1,1,126,Basic,Secondary,'Manual skilled','Manual skilled',118.7,1,0,0,1,0,0,19,0,13.9,-0.3,0.79,'Not on time'
1,44,1,9085,1,39,140,Basic,Basic,Clerical/service,Other/unknown,140,0,0,1,0,0,0,20,0,16.2,0.3,-0.92,'Not on time'
1,17,1,9130,1,1,157,Higher,Higher,High-skilled,'Manual skilled',150.9,1,0,0,1,0,0,18,0,13.9,-0.3,0.79,'Not on time'
1,17,2,9254,1,1,123,Basic,Basic,Clerical/service,Clerical/service,113.2,1,0,1,1,0,0,19,0,16.2,0.3,-0.92,'Not on time'
1,17,1,9085,1,1,138,Higher,Basic,High-skilled,Low-skilled,126.8,1,0,0,1,0,0,18,0,10.8,1.4,1.74,'Not on time'
1,17,1,171,1,1,133,Secondary,Secondary,'Manual skilled','Manual skilled',134.8,1,0,0,1,0,0,18,0,12.4,0.5,1.79,'Not on time'
1,1,3,9500,1,1,139,Secondary,Secondary,High-skilled,High-skilled,130.8,1,0,0,0,0,0,18,0,9.4,-0.8,-3.12,'Not on time'
1,17,5,9500,1,1,137,Secondary,Secondary,Clerical/service,Clerical/service,131.1,1,0,0,1,0,0,18,0,13.9,-0.3,0.79,'Not on time'
1,17,2,9670,1,1,123,Unknown,Basic,Other/unknown,Other/unknown,114.6,1,0,1,0,0,0,18,0,7.6,2.6,0.32,'Not on time'
1,42,1,9853,1,1,141,Basic,Basic,Low-skilled,High-skilled,133,0,0,0,1,0,0,20,0,10.8,1.4,1.74,'Not on time'
1,1,6,9500,1,1,138,Higher,Basic,High-skilled,High-skilled,124.7,1,0,0,1,1,0,18,0,16.2,0.3,-0.92,'Not on time'
1,43,1,9070,1,1,117,Secondary,Secondary,Clerical/service,'Manual skilled',112.5,1,0,0,1,1,0,19,0,13.9,-0.3,0.79,'Not on time'
1,44,1,9119,1,39,180,Secondary,Secondary,Low-skilled,'Manual skilled',180,0,0,0,1,1,1,20,0,12.4,0.5,1.79,'Not on time'
1,1,1,9119,1,1,126,Basic,Basic,Clerical/service,Clerical/service,130.2,0,0,0,1,1,0,19,0,10.8,1.4,1.74,'Not on time'
1,17,1,171,1,1,129,Basic,Basic,Clerical/service,'Manual skilled',128,0,0,0,0,1,0,20,0,9.4,-0.8,-3.12,'Not on time'
1,43,1,9147,1,1,151,Secondary,Higher,High-skilled,High-skilled,111,0,0,0,1,1,0,28,0,15.5,2.8,-4.06,'Not on time'
1,39,1,9130,1,1,130,Basic,Secondary,Low-skilled,Clerical/service,110,0,0,0,1,1,0,24,0,16.2,0.3,-0.92,'Not on time'
1,17,1,9500,1,1,128,Secondary,Secondary,Clerical/service,Clerical/service,124.7,0,0,0,1,1,1,19,0,15.5,2.8,-4.06,'Not on time'
1,7,1,9085,1,40,140,Higher,Higher,High-skilled,High-skilled,140,0,0,1,1,1,0,27,0,11.1,0.6,2.02,'Not on time'
1,44,1,9003,1,39,130,Higher,Higher,High-skilled,High-skilled,130,0,0,0,1,1,0,20,0,15.5,2.8,-4.06,'Not on time'
1,39,1,9003,1,1,130,Basic,Basic,Low-skilled,Low-skilled,150,0,0,1,0,1,0,28,0,11.1,0.6,2.02,'Not on time'
1,43,1,9500,1,1,120,Higher,Higher,High-skilled,Clerical/service,120.6,0,0,0,1,1,0,18,0,16.2,0.3,-0.92,'Not on time'
2,39,1,171,1,19,100,Basic,Basic,Low-skilled,Low-skilled,139,0,0,0,1,1,0,36,0,10.8,1.4,1.74,'Not on time'
1,1,1,9254,1,1,133.1,Basic,Secondary,Low-skilled,Low-skilled,121,0,0,1,0,1,0,21,0,8.9,1.4,3.51,'Not on time'
1,42,1,9119,1,1,120,Higher,Higher,High-skilled,High-skilled,115,0,0,0,1,1,0,30,0,15.5,2.8,-4.06,'Not on time'
1,44,1,9119,1,39,140,Higher,Higher,High-skilled,High-skilled,140,0,0,0,1,1,0,23,0,12.4,0.5,1.79,'Not on time'
1,1,3,9070,1,1,110,Basic,Basic,Low-skilled,Low-skilled,107.6,1,0,0,1,1,1,22,0,7.6,2.6,0.32,'Not on time'
1,1,1,9130,1,1,152,Basic,Basic,Low-skilled,'Manual skilled',135.6,1,0,0,1,1,0,18,0,12.7,3.7,-1.7,'Not on time'
1,43,1,9070,1,1,160,Secondary,Higher,Clerical/service,High-skilled,100,0,0,0,1,1,0,38,0,13.9,-0.3,0.79,'Not on time'
2,39,1,9991,0,1,110,Basic,Basic,High-skilled,Clerical/service,120,1,0,0,0,1,0,40,0,9.4,-0.8,-3.12,'Not on time'
1,43,1,9991,0,1,100,Basic,Basic,Low-skilled,Clerical/service,130,0,0,0,1,1,0,40,0,15.5,2.8,-4.06,'Not on time'
1,17,4,9119,1,1,139,Basic,Basic,Low-skilled,Clerical/service,133.1,1,0,0,1,1,0,18,0,7.6,2.6,0.32,'Not on time'
1,17,5,9254,1,1,113,Secondary,Secondary,High-skilled,High-skilled,110.2,1,0,0,1,1,0,21,0,9.4,-0.8,-3.12,'Not on time'
1,1,1,171,1,1,131,Secondary,Secondary,'Manual skilled',Clerical/service,127.2,1,0,1,1,1,0,23,0,11.1,0.6,2.02,'Not on time'
1,1,2,9670,1,1,117,Higher,Secondary,High-skilled,Clerical/service,110.7,1,0,0,1,1,0,20,0,11.1,0.6,2.02,'Not on time'
1,7,1,9119,1,40,130,Secondary,Secondary,Clerical/service,Clerical/service,130,0,0,0,1,1,0,27,0,11.1,0.6,2.02,'Not on time'
1,39,2,9238,1,1,110,Basic,Secondary,Clerical/service,Clerical/service,136.5,0,0,0,1,1,0,28,0,13.9,-0.3,0.79,'Not on time'
1,43,1,9773,1,1,128,Basic,Basic,Low-skilled,'Manual skilled',124.2,1,0,0,1,1,0,22,0,15.5,2.8,-4.06,'Not on time'
1,1,1,9500,1,1,142,Secondary,Basic,Low-skilled,Low-skilled,127,0,0,1,0,1,0,21,0,12.4,0.5,1.79,'Not on time'
2,39,1,8014,0,1,133.1,Unknown,Unknown,Other/unknown,Other/unknown,116,0,0,0,0,0,0,51,0,10.8,1.4,1.74,'Not on time'
1,39,1,9085,1,2,140,Basic,Basic,Low-skilled,Other/unknown,150,0,0,0,1,1,0,47,0,16.2,0.3,-0.92,'Not on time'
1,39,2,9991,0,1,133.1,Basic,Basic,Low-skilled,Low-skilled,102.5,0,0,0,0,1,0,27,0,15.5,2.8,-4.06,'Not on time'
2,43,1,9085,1,1,160,Basic,Basic,Low-skilled,'Manual skilled',120,0,0,0,1,1,0,21,0,9.4,-0.8,-3.12,'Not on time'
1,39,1,8014,0,1,100,Basic,Basic,'Manual skilled','Manual skilled',108.3,0,0,0,1,1,0,39,0,7.6,2.6,0.32,'Not on time'
1,39,1,9119,1,19,120,Basic,Basic,Low-skilled,Clerical/service,98.6,0,0,1,0,1,0,28,0,12.4,0.5,1.79,'Not on time'
1,18,1,9119,1,1,148,Higher,Basic,High-skilled,Clerical/service,147.7,0,0,0,1,1,1,18,0,9.4,-0.8,-3.12,'Not on time'
1,1,1,171,1,1,159,Higher,Higher,High-skilled,High-skilled,165.7,1,0,0,1,1,0,18,0,9.4,-0.8,-3.12,'Not on time'
1,44,1,9003,1,39,140,Basic,Basic,Low-skilled,High-skilled,140,0,0,0,1,1,1,20,0,15.5,2.8,-4.06,'Not on time'
1,1,1,9670,1,1,120,Secondary,Secondary,Low-skilled,Low-skilled,129.1,1,0,0,1,1,0,18,0,10.8,1.4,1.74,'Not on time'
1,43,1,171,1,1,120,Higher,Higher,High-skilled,High-skilled,120,1,0,0,1,1,0,22,0,7.6,2.6,0.32,'Not on time'
1,17,2,9773,1,1,124,Secondary,Secondary,Clerical/service,Clerical/service,127.9,1,0,0,1,1,0,20,0,9.4,-0.8,-3.12,'Not on time'
1,18,3,9853,1,1,122,Basic,Basic,Low-skilled,Clerical/service,120.3,1,0,0,1,0,0,19,0,10.8,1.4,1.74,'Not on time'
1,17,1,9853,1,1,108,Basic,Secondary,Clerical/service,Clerical/service,107.3,0,0,0,1,0,0,20,0,15.5,2.8,-4.06,'Not on time'
1,43,1,9130,1,1,100,Higher,Higher,High-skilled,High-skilled,100,0,0,0,1,0,0,19,1,9.4,-0.8,-3.12,'Not on time'
1,17,2,9254,1,1,113,Secondary,Higher,Clerical/service,High-skilled,106.7,1,0,1,1,1,1,19,0,13.9,-0.3,0.79,'Not on time'
1,1,2,171,1,1,165,Higher,Higher,High-skilled,High-skilled,163.6,1,0,0,1,0,0,18,0,12.4,0.5,1.79,'Not on time'
1,39,1,8014,0,1,140,Basic,Secondary,Low-skilled,'Manual skilled',105,0,0,0,1,0,0,26,0,15.5,2.8,-4.06,'Not on time'
1,39,1,9991,0,1,150,Basic,Basic,Low-skilled,'Manual skilled',138.5,0,0,0,1,0,0,26,0,12.7,3.7,-1.7,'Not on time'
1,39,1,9003,1,1,133.1,Basic,Basic,Low-skilled,Low-skilled,100,0,0,0,1,0,0,30,0,11.1,0.6,2.02,'Not on time'
1,43,1,171,1,1,145,Basic,Basic,Low-skilled,Low-skilled,100,0,0,0,1,0,1,18,0,13.9,-0.3,0.79,'Not on time'
1,1,5,9085,1,1,121,Basic,Basic,Low-skilled,'Manual skilled',114,1,0,0,0,0,0,19,0,9.4,-0.8,-3.12,'Not on time'
1,1,4,9119,1,1,126,Higher,Basic,High-skilled,Low-skilled,123.6,1,0,0,1,1,0,18,0,8.9,1.4,3.51,'Not on time'
1,43,1,9991,0,1,133.1,Basic,Basic,Low-skilled,'Manual skilled',114.7,0,0,0,1,0,0,34,1,10.8,1.4,1.74,'Not on time'
1,39,1,9991,0,1,130,Secondary,Secondary,Low-skilled,'Manual skilled',152.1,0,0,0,1,1,0,28,0,11.1,0.6,2.02,'Not on time'
2,39,1,9119,1,19,133.1,Basic,Basic,Low-skilled,Low-skilled,100,0,0,0,1,1,0,36,0,16.2,0.3,-0.92,'Not on time'
1,44,1,9003,1,39,130,Basic,Basic,Low-skilled,Clerical/service,130,0,0,1,0,1,0,20,0,16.2,0.3,-0.92,'Not on time'
2,39,2,9147,1,1,133.1,Basic,Basic,Clerical/service,'Manual skilled',110,0,0,0,1,1,0,43,0,9.4,-0.8,-3.12,'Not on time'
1,1,1,9500,1,1,133.1,Secondary,Basic,High-skilled,Clerical/service,115,0,0,0,0,1,0,20,0,16.2,0.3,-0.92,'Not on time'
1,39,1,8014,0,1,133.1,Basic,Basic,Low-skilled,Low-skilled,148.5,0,0,0,1,1,0,34,0,11.1,0.6,2.02,'Not on time'
2,42,1,9556,1,1,110,Basic,Basic,Low-skilled,'Manual skilled',140,0,0,0,1,1,0,43,0,16.2,0.3,-0.92,'Not on time'
1,1,2,9119,1,1,126,Secondary,Basic,Clerical/service,Low-skilled,122.5,1,0,0,1,1,0,20,0,8.9,1.4,3.51,'Not on time'
1,17,1,9147,1,1,133.1,Basic,Basic,Low-skilled,'Manual skilled',100,0,0,0,1,1,0,21,0,16.2,0.3,-0.92,'Not on time'
1,1,1,171,1,1,127,Secondary,Secondary,Clerical/service,High-skilled,126.3,1,0,1,1,1,0,21,0,16.2,0.3,-0.92,'Not on time'
1,39,2,9147,1,1,143,Basic,Higher,Clerical/service,High-skilled,100,1,0,0,1,1,0,24,0,9.4,-0.8,-3.12,'Not on time'
1,39,1,9085,1,1,110,Secondary,Secondary,Clerical/service,Clerical/service,160,1,0,1,1,0,0,30,0,13.9,-0.3,0.79,'Not on time'
1,1,1,9130,1,1,138,Higher,Higher,High-skilled,High-skilled,123,1,0,0,1,0,0,21,0,12.7,3.7,-1.7,'Not on time'
1,39,1,9254,1,1,133.1,Basic,Basic,Clerical/service,'Manual skilled',123,0,0,1,0,0,1,28,0,13.9,-0.3,0.79,'Not on time'
1,39,1,9119,1,1,160,Secondary,Basic,Clerical/service,'Manual skilled',112,0,0,0,0,1,0,25,0,9.4,-0.8,-3.12,'Not on time'
1,44,1,9003,1,39,120,Basic,Basic,High-skilled,Clerical/service,120,0,0,0,1,1,0,23,0,15.5,2.8,-4.06,'Not on time'
1,39,1,9991,0,1,130,Basic,Basic,Low-skilled,Low-skilled,130.1,0,0,0,1,0,0,25,0,10.8,1.4,1.74,'Not on time'
1,17,2,171,1,1,141,Basic,Basic,Low-skilled,Low-skilled,136.1,1,0,0,1,0,1,18,0,12.7,3.7,-1.7,'Not on time'
1,39,1,9773,1,9,133.1,Basic,Secondary,Clerical/service,Clerical/service,102,1,0,0,1,1,0,28,0,7.6,2.6,0.32,'Not on time'
4,39,1,9991,0,1,130,Basic,Basic,Low-skilled,Low-skilled,127.6,0,0,0,1,1,0,29,0,7.6,2.6,0.32,'Not on time'
1,1,3,9500,1,1,126,Secondary,Basic,High-skilled,'Manual skilled',120.1,1,0,0,1,0,0,19,0,12.4,0.5,1.79,'Not on time'
1,17,1,9670,1,1,115,Secondary,Secondary,Clerical/service,Clerical/service,109.1,1,0,0,1,0,1,19,0,12.4,0.5,1.79,'Not on time'
1,17,3,9147,1,1,137,Secondary,Secondary,Clerical/service,'Manual skilled',124.4,1,0,0,1,0,0,18,0,11.1,0.6,2.02,'Not on time'
1,39,1,9991,0,1,140,Basic,Basic,Low-skilled,Clerical/service,140,0,0,0,0,0,0,37,0,15.5,2.8,-4.06,'Not on time'
2,39,1,9773,1,19,133.1,Basic,Basic,Low-skilled,'Manual skilled',110,0,0,0,0,0,0,53,0,15.5,2.8,-4.06,'Not on time'
1,1,1,171,1,1,163,Secondary,Secondary,Clerical/service,High-skilled,149.7,1,0,0,1,0,1,18,0,13.9,-0.3,0.79,'Not on time'
2,39,1,9500,1,1,110,Basic,Basic,Low-skilled,'Manual skilled',114.3,0,0,0,1,0,0,41,0,10.8,1.4,1.74,'Not on time'
1,39,1,8014,0,1,120,Basic,Basic,Low-skilled,'Manual skilled',106.8,0,0,0,1,0,0,49,0,13.9,-0.3,0.79,'Not on time'
1,39,1,9991,0,1,150,Higher,Secondary,High-skilled,Low-skilled,154,0,0,0,1,0,0,27,0,12.4,0.5,1.79,'Not on time'
1,39,1,8014,0,1,133.1,Basic,Basic,Low-skilled,'Manual skilled',129,0,0,0,1,0,0,37,0,16.2,0.3,-0.92,'Not on time'
6,39,1,8014,0,1,133.1,Basic,Basic,Low-skilled,Low-skilled,119,0,0,0,1,0,1,48,0,10.8,1.4,1.74,'Not on time'
1,39,1,9670,1,1,150,Unknown,Unknown,Other/unknown,Other/unknown,108,0,0,0,1,0,0,25,0,7.6,2.6,0.32,'Not on time'
1,39,1,9991,0,1,130,Basic,Basic,'Manual skilled','Manual skilled',111.9,0,0,1,1,0,0,36,0,12.7,3.7,-1.7,'Not on time'
2,39,1,9991,0,1,110,Basic,Basic,Low-skilled,High-skilled,127.1,0,0,0,1,0,0,34,0,7.6,2.6,0.32,'Not on time'
1,39,1,9085,1,1,140,Higher,Higher,Clerical/service,High-skilled,141.7,1,0,0,1,0,0,27,0,12.4,0.5,1.79,'Not on time'
1,18,3,9070,1,1,134,Secondary,Secondary,High-skilled,Clerical/service,121.4,0,0,0,1,0,0,18,0,9.4,-0.8,-3.12,'Not on time'
1,1,1,171,1,1,124,Secondary,Basic,High-skilled,Other/unknown,113.9,1,1,0,1,0,0,19,0,13.9,-0.3,0.79,'Not on time'
1,1,2,9773,1,1,144,Higher,Higher,High-skilled,High-skilled,140.2,1,0,0,1,0,0,20,0,16.2,0.3,-0.92,'Not on time'
1,17,3,9556,1,1,126,Basic,Basic,Low-skilled,Clerical/service,119,1,0,0,1,0,1,19,0,16.2,0.3,-0.92,'Not on time'
1,17,1,9853,1,1,140,Basic,Basic,Clerical/service,Other/unknown,122.3,1,0,0,1,0,0,19,0,12.7,3.7,-1.7,'Not on time'
1,1,1,9853,1,1,125,Basic,Basic,Low-skilled,Low-skilled,125.4,0,0,1,0,0,0,19,0,16.2,0.3,-0.92,'Not on time'
2,39,1,9556,1,1,160,Basic,Basic,Low-skilled,'Manual skilled',120,0,0,0,1,0,0,31,0,12.7,3.7,-1.7,'Not on time'
1,1,2,9773,1,1,130,Basic,Basic,Clerical/service,'Manual skilled',137.4,0,0,0,1,0,0,19,0,15.5,2.8,-4.06,'Not on time'
1,39,1,9085,1,12,133.1,Basic,Basic,Other/unknown,Low-skilled,144,0,0,0,1,1,0,51,0,12.4,0.5,1.79,'Not on time'
2,2,1,9147,1,2,120,Basic,Basic,Low-skilled,Low-skilled,120,0,0,0,0,1,0,57,0,9.4,-0.8,-3.12,'Not on time'
1,1,1,9130,1,1,110,Higher,Basic,High-skilled,Low-skilled,105.5,1,0,1,0,0,0,19,0,11.1,0.6,2.02,'Not on time'
1,17,4,9773,1,1,119,Basic,Basic,Low-skilled,Low-skilled,118.3,0,0,0,1,0,0,19,0,15.5,2.8,-4.06,'Not on time'
2,39,1,9085,1,1,120,Basic,Basic,High-skilled,Clerical/service,130,0,0,0,1,0,0,29,0,9.4,-0.8,-3.12,'Not on time'
1,1,5,9500,1,1,144,Basic,Basic,'Manual skilled',Low-skilled,126.8,1,0,1,0,0,0,18,0,9.4,-0.8,-3.12,'Not on time'
1,1,6,9500,1,1,122,Secondary,Secondary,Clerical/service,Clerical/service,119.6,1,0,0,1,0,0,21,0,13.9,-0.3,0.79,'Not on time'
1,17,3,9147,1,1,125,Basic,Basic,'Manual skilled','Manual skilled',125.7,0,0,0,1,0,0,20,0,15.5,2.8,-4.06,'Not on time'
1,1,1,9147,1,1,127,Basic,Basic,Clerical/service,Clerical/service,129.8,1,0,0,1,0,0,22,0,7.6,2.6,0.32,'Not on time'
1,1,1,9254,1,1,129,Secondary,Secondary,Clerical/service,High-skilled,126.2,0,0,1,0,0,1,21,0,8.9,1.4,3.51,'Not on time'
1,1,1,9670,1,1,133,Basic,Basic,Low-skilled,Low-skilled,128.1,1,0,0,1,1,1,18,0,13.9,-0.3,0.79,'Not on time'
1,39,1,9130,1,10,133.1,Secondary,Basic,Other/unknown,Other/unknown,128.2,0,0,0,0,1,1,30,0,9.4,-0.8,-3.12,'Not on time'
1,1,1,9670,1,1,115,Basic,Basic,Low-skilled,Low-skilled,114.3,0,0,0,1,1,0,18,0,12.4,0.5,1.79,'Not on time'
1,42,1,9003,1,1,140,Secondary,Higher,Clerical/service,High-skilled,140,1,0,0,1,1,0,23,0,15.5,2.8,-4.06,'Not on time'
1,17,5,9773,1,1,139,Basic,Secondary,Clerical/service,Clerical/service,123.6,1,0,0,1,1,0,18,0,7.6,2.6,0.32,'Not on time'
1,44,1,9003,1,39,150,Higher,Basic,High-skilled,'Manual skilled',150,0,0,0,1,1,0,20,0,15.5,2.8,-4.06,'Not on time'
1,39,1,9556,1,1,140,Basic,Basic,Low-skilled,Low-skilled,106,1,0,1,0,0,1,24,0,8.9,1.4,3.51,'Not on time'
1,17,3,9085,1,1,120,Basic,Basic,Low-skilled,Low-skilled,111.3,0,0,0,1,0,0,20,0,11.1,0.6,2.02,'Not on time'
1,43,1,9773,1,1,129,Secondary,Secondary,Clerical/service,'Manual skilled',129,0,0,0,0,0,0,21,0,10.8,1.4,1.74,'Not on time'
1,1,1,9853,1,1,121,Basic,Basic,'Manual skilled','Manual skilled',113,1,0,0,1,0,0,21,0,12.7,3.7,-1.7,'Not on time'
1,43,1,9500,1,1,120,Basic,Basic,Low-skilled,'Manual skilled',120,1,0,0,1,0,0,26,0,7.6,2.6,0.32,'Not on time'
2,53,1,9147,1,42,130,Basic,Basic,'Manual skilled',Clerical/service,132.4,0,0,0,1,0,0,30,0,8.9,1.4,3.51,'Not on time'
1,39,1,9003,1,1,130,Basic,Basic,Low-skilled,'Manual skilled',113,1,0,0,0,1,0,35,0,15.5,2.8,-4.06,'Not on time'
1,39,1,9500,1,1,130,Basic,Basic,High-skilled,'Manual skilled',129,0,0,1,0,0,0,26,0,12.4,0.5,1.79,'Not on time'
1,51,1,9070,1,12,133.1,Basic,Basic,High-skilled,'Manual skilled',106.6,0,0,1,1,0,0,31,0,8.9,1.4,3.51,'Not on time'
1,1,6,9147,1,1,142,Basic,Basic,'Manual skilled','Manual skilled',134.3,0,1,0,1,1,0,21,0,10.8,1.4,1.74,'Not on time'
1,39,1,9130,1,39,150,Secondary,Higher,Clerical/service,High-skilled,150,0,0,0,1,1,0,28,0,16.2,0.3,-0.92,'Not on time'
1,39,2,9670,1,19,133.1,Unknown,Unknown,Other/unknown,Other/unknown,100,1,0,0,0,1,0,27,0,7.6,2.6,0.32,'Not on time'
1,17,1,9670,1,1,140,Secondary,Secondary,Clerical/service,High-skilled,133.4,0,0,0,1,1,0,24,0,10.8,1.4,1.74,'Not on time'
1,1,1,9254,1,1,124,Basic,Basic,Low-skilled,'Manual skilled',114.6,1,0,0,1,1,0,19,0,7.6,2.6,0.32,'Not on time'
2,44,1,9003,1,39,140,Basic,Basic,Clerical/service,'Manual skilled',140,0,0,0,1,1,0,37,0,16.2,0.3,-0.92,'Not on time'
4,39,1,9500,1,1,133.1,Secondary,Basic,High-skilled,High-skilled,154.3,0,0,0,1,0,0,32,0,12.4,0.5,1.79,'Not on time'
1,1,1,9238,1,1,133,Unknown,Basic,Clerical/service,Clerical/service,120.4,0,0,0,0,0,0,21,0,9.4,-0.8,-3.12,'Not on time'
2,1,1,9147,1,1,137,Basic,Basic,Low-skilled,Low-skilled,124.4,0,0,0,1,0,0,19,0,10.8,1.4,1.74,'Not on time'
1,43,1,9238,1,1,109,Basic,Basic,Clerical/service,Clerical/service,108.3,0,0,0,1,0,1,21,0,10.8,1.4,1.74,'Not on time'
1,16,3,9853,1,1,134,Basic,Basic,Low-skilled,Low-skilled,121.1,1,0,0,1,0,0,19,0,10.8,1.4,1.74,'Not on time'
1,17,6,9500,1,1,136,Higher,Basic,High-skilled,Low-skilled,125.7,1,0,0,1,0,0,20,0,11.1,0.6,2.02,'Not on time'
2,39,1,9991,0,3,130,Higher,Secondary,High-skilled,Other/unknown,160,0,0,0,1,0,0,30,0,12.7,3.7,-1.7,'Not on time'
2,7,1,9147,1,3,140,Basic,Basic,Low-skilled,Low-skilled,140,0,0,0,1,0,0,23,0,7.6,2.6,0.32,'Not on time'
1,17,1,9556,1,1,133,Secondary,Basic,Clerical/service,Low-skilled,119,0,0,0,1,0,0,19,0,12.7,3.7,-1.7,'Not on time'
1,39,1,9500,1,1,133.1,Basic,Basic,Clerical/service,'Manual skilled',121.4,0,0,1,1,0,0,28,0,13.9,-0.3,0.79,'Not on time'
1,1,1,9853,1,1,160,Secondary,Basic,Low-skilled,Low-skilled,146,1,0,0,1,0,0,19,0,9.4,-0.8,-3.12,'Not on time'
4,39,1,8014,0,19,133.1,Basic,Basic,Low-skilled,Low-skilled,95,0,0,1,0,0,0,50,0,8.9,1.4,3.51,'Not on time'
1,44,1,9003,1,39,130,Basic,Basic,Low-skilled,Other/unknown,130,0,0,0,1,1,0,25,0,15.5,2.8,-4.06,'Not on time'
1,39,1,9130,1,1,150,Secondary,Secondary,Clerical/service,Other/unknown,110,0,0,1,1,1,0,24,0,9.4,-0.8,-3.12,'Not on time'
2,39,1,9991,0,1,133.1,Basic,Basic,Clerical/service,'Manual skilled',133.2,0,0,0,0,1,0,43,0,13.9,-0.3,0.79,'Not on time'
1,17,3,9147,1,1,127,Basic,Basic,Clerical/service,'Manual skilled',116.2,0,0,0,1,1,0,18,0,9.4,-0.8,-3.12,'Not on time'
1,1,1,171,1,1,140,Basic,Basic,High-skilled,High-skilled,129.5,1,0,0,1,1,0,20,0,10.8,1.4,1.74,'Not on time'
1,1,1,9119,1,1,136,Basic,Basic,Low-skilled,Low-skilled,121.7,1,0,0,1,1,0,18,0,7.6,2.6,0.32,'Not on time'
2,39,1,9991,0,1,150,Secondary,Higher,Clerical/service,High-skilled,146,0,0,0,1,1,0,34,0,12.7,3.7,-1.7,'Not on time'
1,42,1,9003,1,39,120,Higher,Secondary,High-skilled,'Manual skilled',128.2,1,0,0,1,1,0,24,0,16.2,0.3,-0.92,'Not on time'
1,39,2,9147,1,19,133.1,Basic,Basic,Clerical/service,Other/unknown,116.3,0,0,0,0,1,0,32,0,10.8,1.4,1.74,'Not on time'
1,17,1,9085,1,1,120,Basic,Basic,Clerical/service,'Manual skilled',122.5,0,0,0,0,1,0,19,0,11.1,0.6,2.02,'Not on time'
1,39,1,9238,1,19,133.1,Basic,Basic,Low-skilled,Low-skilled,139,0,0,1,0,1,0,33,0,16.2,0.3,-0.92,'Not on time'
1,39,1,9003,1,1,130,Secondary,Secondary,Low-skilled,Clerical/service,140,0,0,0,0,1,0,25,0,13.9,-0.3,0.79,'Not on time'
1,44,1,9119,1,39,130,Basic,Higher,High-skilled,Clerical/service,130,0,0,1,0,1,0,23,0,15.5,2.8,-4.06,'Not on time'
1,42,1,9500,1,1,100,Basic,Basic,Low-skilled,Low-skilled,100,0,0,1,1,1,0,24,0,12.7,3.7,-1.7,'Not on time'
1,7,1,171,1,3,130,Secondary,Higher,Low-skilled,High-skilled,130,0,0,0,0,1,0,18,0,9.4,-0.8,-3.12,'Not on time'
1,1,3,9773,1,1,127,Basic,Basic,'Manual skilled',High-skilled,133.7,1,0,1,1,1,0,18,0,12.7,3.7,-1.7,'Not on time'
1,18,4,171,1,1,133,Secondary,Higher,Low-skilled,Clerical/service,129.2,1,0,1,0,1,0,20,0,9.4,-0.8,-3.12,'Not on time'
1,1,1,171,1,1,133.1,Secondary,Basic,Low-skilled,Low-skilled,117,0,0,1,1,1,0,19,0,15.5,2.8,-4.06,'Not on time'
1,17,1,9670,1,1,132,Basic,Secondary,Clerical/service,Clerical/service,119.1,0,0,1,1,1,0,18,0,10.8,1.4,1.74,'Not on time'
1,1,1,9238,1,1,135,Basic,Basic,'Manual skilled',Clerical/service,121,0,0,0,1,0,0,20,0,9.4,-0.8,-3.12,'Not on time'
1,44,1,9238,1,39,140,Basic,Basic,Low-skilled,Other/unknown,136.1,1,0,1,1,0,0,21,0,12.4,0.5,1.79,'Not on time'
5,39,1,9853,1,19,133.1,Basic,Basic,Low-skilled,'Manual skilled',118,0,0,0,1,0,0,27,0,12.4,0.5,1.79,'Not on time'
1,1,6,9500,1,1,126,Secondary,Basic,Clerical/service,Low-skilled,121.8,1,0,0,1,0,0,19,0,12.4,0.5,1.79,'Not on time'
1,1,1,171,1,1,127,Basic,Basic,Low-skilled,Low-skilled,120.7,1,0,1,1,1,0,18,0,7.6,2.6,0.32,'Not on time'
1,1,1,9147,1,1,133.1,Unknown,Unknown,Other/unknown,Other/unknown,125.3,0,0,0,1,1,0,26,0,7.6,2.6,0.32,'Not on time'
1,17,5,9119,1,1,131,Basic,Basic,Low-skilled,'Manual skilled',123.3,1,0,0,1,1,1,19,0,8.9,1.4,3.51,'Not on time'
1,17,3,9070,1,1,131,Basic,Basic,Clerical/service,Clerical/service,120.2,1,0,0,1,1,0,18,0,15.5,2.8,-4.06,'Not on time'
1,17,4,9070,1,1,128,Secondary,Secondary,Low-skilled,Other/unknown,136.1,1,0,1,0,1,0,19,0,11.1,0.6,2.02,'Not on time'
1,39,1,9670,1,12,133.1,Basic,Secondary,Low-skilled,High-skilled,120,0,0,1,0,1,0,40,0,15.5,2.8,-4.06,'Not on time'
1,44,1,9003,1,1,120,Secondary,Higher,Clerical/service,High-skilled,120,0,0,0,1,1,0,19,0,16.2,0.3,-0.92,'Not on time'
1,44,1,9003,1,39,130,Secondary,Secondary,High-skilled,Other/unknown,130,0,0,0,1,1,0,22,0,15.5,2.8,-4.06,'Not on time'
1,39,1,9119,1,1,130,Basic,Basic,Low-skilled,Low-skilled,134,0,0,0,1,1,1,24,0,12.7,3.7,-1.7,'Not on time'
1,51,1,9085,1,40,120,Higher,Higher,Clerical/service,High-skilled,125,0,0,0,1,0,0,28,0,11.1,0.6,2.02,'Not on time'
1,44,1,9085,1,1,130,Secondary,Secondary,Clerical/service,High-skilled,130,1,0,0,1,0,0,20,0,12.4,0.5,1.79,'Not on time'
1,1,3,9773,1,1,131,Secondary,Secondary,Clerical/service,Clerical/service,127.2,1,0,0,1,0,1,18,0,12.4,0.5,1.79,'Not on time'
1,43,1,9556,1,1,126,Higher,Higher,High-skilled,High-skilled,100,0,0,0,1,0,0,25,0,10.8,1.4,1.74,'Not on time'
1,1,1,9238,1,1,116,Basic,Basic,Low-skilled,'Manual skilled',108.7,1,0,0,1,1,0,18,0,11.1,0.6,2.02,'Not on time'
1,17,1,9773,1,1,128,Basic,Basic,Clerical/service,'Manual skilled',125.6,1,0,0,1,1,0,19,0,8.9,1.4,3.51,'Not on time'
1,1,1,9147,1,1,135,Secondary,Basic,Clerical/service,Clerical/service,130.1,1,0,0,1,0,0,18,0,9.4,-0.8,-3.12,'Not on time'
1,39,1,8014,0,1,133.1,Basic,Basic,Low-skilled,'Manual skilled',121,0,0,1,0,0,0,44,0,8.9,1.4,3.51,'Not on time'
1,44,1,9003,1,39,140,Higher,Higher,Clerical/service,High-skilled,120,1,0,0,1,1,0,22,0,12.4,0.5,1.79,'Not on time'
1,39,1,9254,1,19,133.1,Basic,Basic,Low-skilled,Clerical/service,100,0,0,0,1,1,0,27,0,16.2,0.3,-0.92,'Not on time'
1,1,1,9238,1,1,116,Basic,Basic,'Manual skilled',Other/unknown,110.8,1,0,0,1,1,0,19,0,16.2,0.3,-0.92,'Not on time'
1,1,2,171,1,1,129,Basic,Basic,Low-skilled,Low-skilled,122,1,0,0,0,1,0,22,0,7.6,2.6,0.32,'Not on time'
1,39,1,9085,1,12,133.1,Unknown,Unknown,Other/unknown,Other/unknown,128.2,0,0,1,0,1,0,27,0,7.6,2.6,0.32,'Not on time'
4,39,1,9773,1,12,120,Basic,Basic,Clerical/service,Low-skilled,130,0,0,0,0,1,0,55,0,10.8,1.4,1.74,'Not on time'
1,43,1,9991,0,1,133.1,Basic,Basic,High-skilled,Other/unknown,136.1,0,0,0,1,1,1,42,0,13.9,-0.3,0.79,'Not on time'
1,1,1,9500,1,1,123,Basic,Basic,'Manual skilled','Manual skilled',119.7,0,0,0,1,1,0,20,0,13.9,-0.3,0.79,'Not on time'
1,17,1,9500,1,1,145,Secondary,Secondary,Clerical/service,Other/unknown,131.4,0,0,0,1,0,0,19,0,13.9,-0.3,0.79,'Not on time'
1,1,4,9670,1,1,130,Secondary,Secondary,Low-skilled,Low-skilled,124.1,1,0,0,1,0,0,18,0,8.9,1.4,3.51,'Not on time'
1,17,3,9254,1,1,127,Basic,Basic,Low-skilled,'Manual skilled',123.5,1,0,0,1,0,1,20,0,7.6,2.6,0.32,'Not on time'
1,39,1,9119,1,1,110,Basic,Basic,Other/unknown,Other/unknown,108.4,1,0,0,1,0,0,34,0,10.8,1.4,1.74,'Not on time'
1,43,1,9147,1,1,127,Secondary,Higher,Low-skilled,Other/unknown,124.2,1,0,0,1,1,0,23,1,15.5,2.8,-4.06,'Not on time'
1,1,1,9254,1,1,123,Basic,Basic,Clerical/service,Clerical/service,125.1,0,0,0,1,0,0,19,0,16.2,0.3,-0.92,'Not on time'
5,39,1,9147,1,1,180,Secondary,Secondary,Clerical/service,'Manual skilled',140.5,0,0,1,0,0,0,24,0,13.9,-0.3,0.79,'Not on time'
1,1,1,9773,1,1,125,Higher,Higher,High-skilled,High-skilled,119.1,1,0,0,1,0,0,22,0,9.4,-0.8,-3.12,'Not on time'
1,1,1,9500,1,1,103,Secondary,Basic,Low-skilled,Low-skilled,108.3,0,0,0,1,0,1,20,0,11.1,0.6,2.02,'Not on time'
1,1,1,9853,1,1,128,Secondary,Secondary,Low-skilled,Low-skilled,120,1,0,0,1,0,0,18,0,12.7,3.7,-1.7,'Not on time'
2,39,1,9085,1,1,150,Basic,Basic,Other/unknown,Other/unknown,112,0,0,0,1,1,0,34,0,10.8,1.4,1.74,'Not on time'
1,5,1,9147,1,1,126,Basic,Basic,Clerical/service,'Manual skilled',117.3,1,0,0,1,0,0,19,0,13.9,-0.3,0.79,'Not on time'
1,1,1,9670,1,1,133.1,Higher,Secondary,High-skilled,'Manual skilled',155,0,0,0,1,0,0,22,0,9.4,-0.8,-3.12,'Not on time'
4,7,1,9500,1,3,130,Higher,Basic,High-skilled,High-skilled,130,0,0,0,1,0,0,43,0,16.2,0.3,-0.92,'Not on time'
1,17,1,9238,1,1,130,Basic,Basic,Low-skilled,Low-skilled,122,1,0,0,1,0,1,21,0,12.7,3.7,-1.7,'Not on time'
1,43,1,9070,1,1,150,Higher,Higher,High-skilled,High-skilled,140.8,0,0,0,1,0,0,19,0,10.8,1.4,1.74,'Not on time'
1,43,1,8014,0,1,120,Basic,Basic,Clerical/service,Clerical/service,118.3,0,0,0,1,0,0,20,0,12.7,3.7,-1.7,'Not on time'
1,1,5,9070,1,1,134,Unknown,Secondary,Clerical/service,'Manual skilled',129.8,1,0,0,1,0,0,18,0,9.4,-0.8,-3.12,'Not on time'
2,39,1,9147,1,1,130,Secondary,Basic,Low-skilled,Low-skilled,109.9,0,0,0,0,0,0,29,0,12.7,3.7,-1.7,'Not on time'
1,43,1,9991,0,1,140,Basic,Basic,Low-skilled,'Manual skilled',135.5,0,0,1,0,0,0,29,0,16.2,0.3,-0.92,'Not on time'
1,1,2,9147,1,1,125,Secondary,Basic,Clerical/service,Low-skilled,124,1,0,0,1,0,0,19,0,10.8,1.4,1.74,'Not on time'
1,1,1,9085,1,1,147,Basic,Basic,Low-skilled,Clerical/service,133.7,1,0,0,1,0,1,19,0,10.8,1.4,1.74,'Not on time'
1,17,2,9853,1,1,133.1,Basic,Basic,Clerical/service,Other/unknown,111.5,0,0,0,1,0,0,18,0,7.6,2.6,0.32,'Not on time'
1,1,1,9238,1,1,133.1,Basic,Secondary,High-skilled,High-skilled,101,0,0,0,1,0,0,21,0,15.5,2.8,-4.06,'Not on time'
1,1,1,9853,1,1,121,Basic,Basic,'Manual skilled','Manual skilled',116.8,1,0,0,1,0,0,18,0,9.4,-0.8,-3.12,'Not on time'
1,43,3,171,1,1,140,Basic,Basic,'Manual skilled','Manual skilled',143.4,1,0,0,1,0,0,21,0,9.4,-0.8,-3.12,'Not on time'
1,43,2,9147,1,1,131,Basic,Basic,Clerical/service,Low-skilled,123.7,1,0,0,1,0,0,18,0,7.6,2.6,0.32,'Not on time'
1,1,1,9991,0,1,131,Basic,Basic,Low-skilled,Low-skilled,118.4,1,0,0,1,0,0,20,0,7.6,2.6,0.32,'Not on time'
1,1,5,9147,1,1,122,Basic,Basic,Low-skilled,Low-skilled,117.5,1,0,1,0,0,0,22,0,12.7,3.7,-1.7,'Not on time'
1,1,1,171,1,1,140,Basic,Basic,Clerical/service,'Manual skilled',137.9,1,0,1,0,0,0,18,0,8.9,1.4,3.51,'Not on time'
2,39,1,8014,0,1,133.1,Basic,Basic,Clerical/service,Clerical/service,134.5,0,0,0,1,0,0,45,0,15.5,2.8,-4.06,'Not on time'
1,1,3,9238,1,1,133.1,Secondary,Secondary,Low-skilled,Low-skilled,100,1,0,0,1,1,0,22,0,8.9,1.4,3.51,'Not on time'
1,1,1,9070,1,1,132,Higher,Secondary,High-skilled,High-skilled,136.6,1,0,0,1,0,0,18,0,13.9,-0.3,0.79,'Not on time'
4,39,1,9500,1,19,133.1,Basic,Basic,Clerical/service,'Manual skilled',100,0,0,0,0,0,0,40,0,9.4,-0.8,-3.12,'Not on time'
1,17,5,9670,1,1,115,Secondary,Basic,Clerical/service,Clerical/service,117.1,0,0,0,1,0,0,21,0,7.6,2.6,0.32,'Not on time'
1,44,1,171,1,39,140,Secondary,Secondary,Low-skilled,Low-skilled,140,0,0,0,1,1,0,21,0,15.5,2.8,-4.06,'Not on time'
1,1,1,9254,1,1,131,Basic,Basic,Low-skilled,Low-skilled,134.5,1,0,0,1,1,0,25,0,7.6,2.6,0.32,'Not on time'
1,39,1,9991,0,1,133.1,Basic,Basic,Low-skilled,'Manual skilled',111.4,0,0,0,1,1,0,27,0,13.9,-0.3,0.79,'Not on time'
1,1,5,9147,1,1,134,Higher,Higher,High-skilled,High-skilled,134.7,0,0,0,1,1,0,22,0,7.6,2.6,0.32,'Not on time'
1,17,1,9147,1,1,120,Basic,Basic,Low-skilled,'Manual skilled',118.3,0,0,0,1,1,0,18,0,12.7,3.7,-1.7,'Not on time'
1,1,5,9147,1,1,133,Basic,Higher,Low-skilled,Low-skilled,123.2,1,0,0,1,1,0,18,0,13.9,-0.3,0.79,'Not on time'
1,7,1,9991,0,3,130,Basic,Basic,High-skilled,Low-skilled,130,0,0,0,0,1,0,32,0,16.2,0.3,-0.92,'Not on time'
1,1,1,9773,1,1,124,Secondary,Secondary,High-skilled,Clerical/service,118.1,1,0,1,0,0,0,19,1,16.2,0.3,-0.92,'Not on time'
1,1,4,9238,1,1,133.1,Secondary,Basic,'Manual skilled',Low-skilled,118,1,0,0,1,0,0,19,0,12.7,3.7,-1.7,'Not on time'
1,1,1,9670,1,1,131,Basic,Basic,Low-skilled,'Manual skilled',127.2,0,0,0,1,0,1,18,0,9.4,-0.8,-3.12,'Not on time'
1,17,5,9147,1,1,133,Secondary,Secondary,Clerical/service,Clerical/service,129.2,1,0,0,1,0,0,19,0,7.6,2.6,0.32,'Not on time'
1,43,1,9254,1,1,134,Basic,Basic,Low-skilled,Low-skilled,133.3,1,0,1,1,0,0,19,0,7.6,2.6,0.32,'Not on time'
1,39,1,9003,1,1,130,Secondary,Secondary,Low-skilled,Low-skilled,126.1,0,0,0,1,1,0,24,0,12.4,0.5,1.79,'Not on time'
1,7,1,9500,1,2,140,Basic,Basic,'Manual skilled','Manual skilled',140,0,0,0,1,0,0,29,0,12.7,3.7,-1.7,'Not on time'
2,1,1,9991,0,1,150,Basic,Basic,Low-skilled,Low-skilled,131.8,0,0,0,0,0,0,29,0,10.8,1.4,1.74,'Not on time'
1,5,4,9853,1,1,116,Higher,Basic,High-skilled,'Manual skilled',110.4,1,0,0,1,0,0,21,0,9.4,-0.8,-3.12,'Not on time'
1,1,1,9070,1,1,145,Secondary,Basic,Clerical/service,'Manual skilled',127.5,1,0,0,1,1,0,20,0,10.8,1.4,1.74,'Not on time'
4,39,1,9500,1,19,133.1,Basic,Basic,'Manual skilled','Manual skilled',117.8,0,0,1,0,0,0,46,0,11.1,0.6,2.02,'Not on time'
1,44,1,9238,1,39,130,Basic,Basic,Clerical/service,Other/unknown,126.7,0,0,1,1,0,0,21,0,13.9,-0.3,0.79,Graduate
1,17,2,9238,1,1,128,Basic,Basic,Low-skilled,'Manual skilled',116.5,0,0,0,1,0,1,18,0,16.2,0.3,-0.92,Graduate
1,1,1,9500,1,1,117,Higher,Secondary,High-skilled,High-skilled,113.2,0,1,0,1,0,0,18,0,16.2,0.3,-0.92,Graduate
4,43,1,9670,1,1,150,Basic,Basic,Low-skilled,'Manual skilled',110,0,0,0,1,0,0,40,0,9.4,-0.8,-3.12,Graduate
1,1,1,9500,1,1,136,Secondary,Secondary,Clerical/service,Clerical/service,123.8,0,0,0,1,0,0,19,0,13.9,-0.3,0.79,Graduate
1,1,1,171,1,1,141,Secondary,Basic,Clerical/service,'Manual skilled',136.8,1,0,0,1,0,1,18,0,13.9,-0.3,0.79,Graduate
1,44,1,9085,1,39,140,Higher,Higher,High-skilled,High-skilled,140,1,0,0,1,0,0,19,0,12.4,0.5,1.79,Graduate
1,1,1,9500,1,1,130,Secondary,Basic,High-skilled,'Manual skilled',120,0,0,0,1,0,0,19,0,7.6,2.6,0.32,Graduate
1,39,1,8014,0,1,130,Basic,Basic,Low-skilled,Other/unknown,131.5,0,0,0,1,0,0,27,0,11.1,0.6,2.02,Graduate
1,1,6,9500,1,1,145,Basic,Basic,Clerical/service,'Manual skilled',127.5,1,0,0,1,0,1,19,0,7.6,2.6,0.32,Graduate
1,44,1,9238,1,39,140,Basic,Basic,'Manual skilled','Manual skilled',144.3,1,0,0,1,0,1,19,0,12.4,0.5,1.79,Graduate
1,1,2,9773,1,1,116,Basic,Basic,Clerical/service,'Manual skilled',110.1,1,0,0,1,0,0,18,0,11.1,0.6,2.02,Graduate
1,51,1,9773,1,1,135,Secondary,Higher,Clerical/service,High-skilled,110,1,0,0,1,1,0,23,0,11.1,0.6,2.02,Graduate
1,1,6,9500,1,1,137,Secondary,Higher,High-skilled,High-skilled,121.3,1,0,0,1,0,0,20,0,7.6,2.6,0.32,Graduate
1,17,1,9254,1,1,125,Secondary,Secondary,High-skilled,High-skilled,114.5,0,0,0,1,1,1,22,0,11.1,0.6,2.02,Graduate
1,1,1,9500,1,1,149,Basic,Basic,Low-skilled,Low-skilled,136,0,0,0,1,0,1,18,0,7.6,2.6,0.32,Graduate
1,1,1,9238,1,1,136,Higher,Higher,High-skilled,High-skilled,126.2,0,0,0,1,1,0,22,0,10.8,1.4,1.74,Graduate
1,17,3,9500,1,1,136,Basic,Secondary,Low-skilled,Low-skilled,129,1,0,0,1,0,1,19,0,12.4,0.5,1.79,Graduate
1,1,2,9500,1,1,133,Basic,Basic,High-skilled,Low-skilled,128.5,1,0,0,1,0,1,19,0,9.4,-0.8,-3.12,Graduate
1,17,2,9254,1,1,128,Basic,Basic,Low-skilled,Low-skilled,129.1,1,0,0,1,0,0,18,0,11.1,0.6,2.02,Graduate
1,1,1,9238,1,1,128,Basic,Basic,Other/unknown,Clerical/service,120.3,1,0,0,1,0,0,19,0,7.6,2.6,0.32,Graduate
1,51,1,9070,1,1,130,Higher,Secondary,High-skilled,'Manual skilled',122.2,0,0,1,1,0,0,20,0,11.1,0.6,2.02,Graduate
1,1,2,9773,1,1,138,Basic,Secondary,Low-skilled,High-skilled,133.5,1,0,0,1,0,0,18,0,12.7,3.7,-1.7,Graduate
1,39,1,9003,1,1,133.1,Secondary,Basic,Clerical/service,Other/unknown,145.8,0,0,0,1,1,0,34,0,12.4,0.5,1.79,Graduate
2,1,4,9853,1,1,134,Basic,Basic,Clerical/service,'Manual skilled',122.5,0,1,0,1,0,1,19,0,10.8,1.4,1.74,Graduate
1,43,1,9003,1,1,150,Higher,Higher,Clerical/service,High-skilled,150,0,0,0,1,1,0,35,0,15.5,2.8,-4.06,Graduate
1,18,1,9119,1,1,108,Secondary,Secondary,Clerical/service,High-skilled,105.6,1,0,0,1,1,0,20,0,12.4,0.5,1.79,Graduate
1,1,1,9130,1,1,160,Higher,Higher,High-skilled,High-skilled,149.2,0,0,0,1,1,0,18,0,7.6,2.6,0.32,Graduate
1,39,1,9500,1,3,133.8,Higher,Basic,High-skilled,Other/unknown,184,0,0,0,1,0,0,28,0,15.5,2.8,-4.06,Graduate
1,1,5,9147,1,1,118,Basic,Basic,Low-skilled,Low-skilled,114.2,1,0,0,1,1,0,20,0,12.4,0.5,1.79,Graduate
1,17,1,9130,1,1,131,Secondary,Secondary,High-skilled,'Manual skilled',128.2,1,0,0,1,1,0,18,0,12.4,0.5,1.79,Graduate
1,1,3,9070,1,1,136,Basic,Basic,Low-skilled,Low-skilled,125.2,1,0,0,1,0,1,18,0,10.8,1.4,1.74,Graduate
1,1,6,9500,1,1,130,Basic,Basic,Clerical/service,'Manual skilled',125.1,1,0,0,1,0,0,18,0,15.5,2.8,-4.06,Graduate
2,7,1,9147,1,3,130,Secondary,Higher,High-skilled,Other/unknown,130,0,0,0,1,0,0,45,0,12.4,0.5,1.79,Graduate
1,1,1,171,1,1,135,Secondary,Basic,Clerical/service,'Manual skilled',137.5,1,0,1,0,1,0,19,0,12.7,3.7,-1.7,Graduate
1,1,1,9070,1,1,130,Secondary,Basic,Clerical/service,Clerical/service,118.5,0,1,0,1,0,1,18,0,8.9,1.4,3.51,Graduate
1,1,3,9500,1,1,135,Secondary,Basic,'Manual skilled','Manual skilled',120.5,1,0,0,1,0,0,19,0,10.8,1.4,1.74,Graduate
1,1,2,9254,1,1,140,Secondary,Basic,Clerical/service,Clerical/service,123.6,1,0,0,1,0,0,18,0,12.7,3.7,-1.7,Graduate
1,1,2,9773,1,1,150,Secondary,Basic,Low-skilled,'Manual skilled',130.8,0,0,0,1,0,1,20,1,15.5,2.8,-4.06,Graduate
4,39,1,8014,0,1,160,Basic,Basic,High-skilled,Clerical/service,97,0,0,0,1,0,1,35,0,15.5,2.8,-4.06,Graduate
1,43,1,9991,0,1,140,Basic,Basic,Low-skilled,Low-skilled,135.8,1,0,0,1,1,0,25,0,9.4,-0.8,-3.12,Graduate
1,39,1,9003,1,1,120,Basic,Basic,Low-skilled,Low-skilled,150.1,1,0,0,1,1,0,43,0,13.9,-0.3,0.79,Graduate
2,39,2,9670,1,1,100,Basic,Basic,Low-skilled,Low-skilled,110,0,0,0,1,1,1,36,0,9.4,-0.8,-3.12,Graduate
1,1,2,9500,1,1,145,Higher,Higher,High-skilled,High-skilled,127.3,1,0,0,1,1,0,18,0,10.8,1.4,1.74,Graduate
1,1,1,9853,1,1,148,Basic,Basic,Clerical/service,'Manual skilled',141.7,0,0,0,1,0,1,18,0,9.4,-0.8,-3.12,Graduate
1,43,1,9991,0,1,150,Higher,Higher,Clerical/service,Clerical/service,100,1,0,0,1,1,0,24,0,13.9,-0.3,0.79,Graduate
2,39,1,9254,1,19,133.1,Basic,Basic,Low-skilled,Other/unknown,156.5,0,0,0,1,1,0,53,0,16.2,0.3,-0.92,Graduate
1,1,1,9085,1,1,142,Secondary,Secondary,Low-skilled,Low-skilled,127.7,1,0,0,1,1,0,19,0,12.7,3.7,-1.7,Graduate
1,7,1,9254,1,40,130,Secondary,Secondary,High-skilled,'Manual skilled',130,0,0,0,1,0,0,39,0,13.9,-0.3,0.79,Graduate
1,44,1,9003,1,39,150,Secondary,Basic,Clerical/service,Other/unknown,150,0,0,0,1,1,1,21,0,15.5,2.8,-4.06,Graduate
1,1,1,9500,1,1,154,Secondary,Secondary,Clerical/service,High-skilled,144.9,0,0,0,1,1,1,18,0,16.2,0.3,-0.92,Graduate
1,1,1,9670,1,1,139,Basic,Basic,Clerical/service,'Manual skilled',130.6,1,0,0,1,0,0,18,0,13.9,-0.3,0.79,Graduate
1,1,1,9147,1,1,127,Basic,Basic,Low-skilled,Other/unknown,117.9,0,0,0,1,0,1,20,0,8.9,1.4,3.51,Graduate
1,39,1,9991,0,12,120,Basic,Basic,Clerical/service,Clerical/service,155.7,0,0,0,1,1,0,33,0,10.8,1.4,1.74,Graduate
1,1,1,9500,1,1,176,Higher,Basic,High-skilled,'Manual skilled',169.7,0,0,0,1,0,1,18,0,16.2,0.3,-0.92,Graduate
1,18,2,9147,1,1,143,Basic,Basic,Low-skilled,'Manual skilled',132.2,1,0,0,1,0,1,18,0,13.9,-0.3,0.79,Graduate
2,1,2,8014,0,1,110,Basic,Secondary,Low-skilled,Other/unknown,108.7,1,0,0,1,0,0,43,0,9.4,-0.8,-3.12,Graduate
1,51,1,33,1,1,121,Basic,Basic,Clerical/service,'Manual skilled',118.6,0,0,0,1,0,0,26,0,8.9,1.4,3.51,Graduate
1,39,1,8014,0,1,120,Basic,Basic,Low-skilled,'Manual skilled',108,0,0,0,1,1,1,37,0,13.9,-0.3,0.79,Graduate
1,17,4,9500,1,1,136,Higher,Higher,High-skilled,High-skilled,132.5,1,0,0,1,0,0,19,0,11.1,0.6,2.02,Graduate
1,1,3,9500,1,1,139,Basic,Secondary,Low-skilled,Clerical/service,135,1,0,0,1,0,1,18,0,12.7,3.7,-1.7,Graduate
1,17,6,9500,1,1,131,Secondary,Basic,'Manual skilled','Manual skilled',126.5,1,0,0,1,0,1,19,0,11.1,0.6,2.02,Graduate
1,17,6,9500,1,1,135,Basic,Basic,'Manual skilled','Manual skilled',128,1,0,0,1,0,1,18,0,11.1,0.6,2.02,Graduate
1,16,2,9238,1,1,126,Basic,Basic,High-skilled,Clerical/service,127.1,1,0,0,1,0,1,19,0,9.4,-0.8,-3.12,Graduate
1,1,1,9670,1,1,130,Basic,Basic,'Manual skilled','Manual skilled',121.6,0,0,0,1,0,0,19,0,12.4,0.5,1.79,Graduate
1,17,2,9556,1,1,136,Secondary,Secondary,Low-skilled,Low-skilled,128.3,0,0,0,1,0,1,18,0,15.5,2.8,-4.06,Graduate
1,1,5,9500,1,1,146,Basic,Basic,'Manual skilled','Manual skilled',133.8,1,0,0,1,0,0,19,0,9.4,-0.8,-3.12,Graduate
1,1,1,8014,0,1,126,Basic,Basic,Clerical/service,Clerical/service,118.7,0,0,0,1,0,0,19,0,12.7,3.7,-1.7,Graduate
1,42,1,9500,1,1,111,Secondary,Higher,Low-skilled,Other/unknown,128.2,1,0,0,1,1,0,23,0,9.4,-0.8,-3.12,Graduate
1,1,1,9147,1,1,127,Higher,Basic,Clerical/service,Clerical/service,121.8,0,0,0,1,0,0,18,0,11.1,0.6,2.02,Graduate
1,17,1,9147,1,1,136,Secondary,Secondary,Clerical/service,Clerical/service,124.1,0,0,0,1,0,0,18,0,8.9,1.4,3.51,Graduate
1,1,1,9238,1,1,133.1,Secondary,Secondary,Clerical/service,Other/unknown,110,0,0,1,1,0,0,23,0,12.7,3.7,-1.7,Graduate
1,1,1,9254,1,1,158,Basic,Secondary,Clerical/service,'Manual skilled',153.5,1,0,0,1,0,0,20,0,11.1,0.6,2.02,Graduate
1,1,1,9147,1,1,160,Basic,Basic,Low-skilled,Clerical/service,159.3,0,0,0,1,0,0,18,0,7.6,2.6,0.32,Graduate
1,39,1,9670,1,1,133.1,Basic,Basic,High-skilled,Low-skilled,118,0,0,0,1,1,0,27,0,8.9,1.4,3.51,Graduate
1,7,1,9147,1,3,130,Basic,Basic,Low-skilled,'Manual skilled',130,0,0,0,1,0,0,21,0,10.8,1.4,1.74,Graduate
1,17,1,9085,1,1,128,Basic,Basic,'Manual skilled','Manual skilled',117.2,0,0,0,1,1,0,20,0,12.7,3.7,-1.7,Graduate
1,1,3,9238,1,1,126,Basic,Basic,Clerical/service,'Manual skilled',120.8,1,0,0,1,0,0,19,0,12.4,0.5,1.79,Graduate
1,1,1,8014,0,1,130,Secondary,Secondary,Low-skilled,Low-skilled,118.1,0,0,0,1,1,0,20,0,7.6,2.6,0.32,Graduate
1,1,1,9130,1,1,134,Secondary,Basic,Clerical/service,Clerical/service,125.6,1,0,0,1,0,0,20,1,12.7,3.7,-1.7,Graduate
1,17,1,9254,1,1,118,Secondary,Basic,Clerical/service,Clerical/service,118,0,0,0,1,0,1,19,0,12.4,0.5,1.79,Graduate
1,51,1,8014,0,42,140,Basic,Basic,High-skilled,Low-skilled,138,1,0,1,1,0,1,21,0,8.9,1.4,3.51,Graduate
1,17,1,9238,1,1,120,Basic,Basic,Low-skilled,Low-skilled,113,1,0,0,1,0,1,20,0,13.9,-0.3,0.79,Graduate
1,43,1,9500,1,1,130,Secondary,Secondary,'Manual skilled',Clerical/service,136,1,0,0,1,1,0,22,0,9.4,-0.8,-3.12,Graduate
1,16,2,171,1,1,145,Higher,Higher,High-skilled,High-skilled,143.6,1,0,0,1,1,0,18,0,12.4,0.5,1.79,Graduate
1,1,1,9773,1,1,120,Basic,Basic,Other/unknown,Other/unknown,126.7,1,0,0,1,1,0,20,0,7.6,2.6,0.32,Graduate
1,1,1,9085,1,1,130,Basic,Basic,Clerical/service,'Manual skilled',121.3,1,0,0,1,0,0,19,0,15.5,2.8,-4.06,Graduate
1,1,1,9670,1,1,110,Higher,Basic,Clerical/service,Clerical/service,109,0,0,0,1,1,1,19,0,15.5,2.8,-4.06,Graduate
1,1,1,9991,0,1,145,Higher,Basic,Clerical/service,Low-skilled,127.5,1,0,0,1,1,0,22,0,7.6,2.6,0.32,Graduate
1,44,1,171,1,39,140,Higher,Higher,High-skilled,High-skilled,140,0,0,1,1,1,0,20,0,15.5,2.8,-4.06,Graduate
1,1,3,9773,1,1,130,Basic,Basic,Low-skilled,Low-skilled,123,1,0,0,1,0,0,18,0,12.7,3.7,-1.7,Graduate
1,1,3,9500,1,1,132,Basic,Basic,Low-skilled,Low-skilled,119.3,1,0,0,1,0,0,19,0,10.8,1.4,1.74,Graduate
1,43,1,9991,0,1,130,Basic,Basic,Low-skilled,Low-skilled,124,0,0,0,1,1,0,31,0,9.4,-0.8,-3.12,Graduate
1,17,2,9500,1,1,131,Basic,Basic,Low-skilled,'Manual skilled',129.8,1,0,0,1,0,0,20,0,12.4,0.5,1.79,Graduate
1,17,2,9853,1,1,131,Secondary,Basic,Clerical/service,'Manual skilled',121.9,1,0,0,1,0,0,19,0,10.8,1.4,1.74,Graduate
1,17,4,9147,1,1,114,Basic,Basic,Clerical/service,Clerical/service,109.5,1,0,0,1,1,1,20,0,8.9,1.4,3.51,Graduate
1,1,2,9500,1,1,152,Basic,Basic,Low-skilled,Low-skilled,139,1,0,0,1,0,0,18,0,7.6,2.6,0.32,Graduate
1,1,5,9500,1,1,151,Secondary,Secondary,Low-skilled,Low-skilled,127.8,0,0,0,1,0,1,18,0,12.7,3.7,-1.7,Graduate
1,17,1,9003,1,1,133,Basic,Basic,Low-skilled,Low-skilled,125.3,1,0,0,1,0,0,21,0,15.5,2.8,-4.06,Graduate
1,51,1,9070,1,1,125,Higher,Higher,High-skilled,High-skilled,130,1,0,0,1,1,0,20,0,8.9,1.4,3.51,Graduate
1,15,1,9670,1,1,133.1,Secondary,Secondary,Low-skilled,Clerical/service,100,0,0,0,1,0,0,21,1,11.1,0.6,2.02,Graduate
1,44,1,9238,1,1,120,Basic,Basic,'Manual skilled',Low-skilled,121,0,0,0,1,0,1,21,0,13.9,-0.3,0.79,Graduate
1,17,2,9500,1,1,129,Basic,Basic,Clerical/service,'Manual skilled',124,1,0,0,1,0,1,18,0,10.8,1.4,1.74,Graduate
1,1,1,9500,1,1,143,Secondary,Basic,High-skilled,'Manual skilled',128,0,0,0,1,0,1,18,0,13.9,-0.3,0.79,Graduate
1,17,4,9773,1,1,134,Secondary,Secondary,High-skilled,High-skilled,120.4,1,0,0,1,0,1,18,0,16.2,0.3,-0.92,Graduate
1,1,1,9238,1,1,141,Basic,Basic,Clerical/service,Clerical/service,138.9,0,0,0,1,0,0,21,0,10.8,1.4,1.74,Graduate
1,39,1,9085,1,19,133.1,Basic,Basic,Clerical/service,Low-skilled,139.9,1,0,0,1,0,1,24,0,8.9,1.4,3.51,Graduate
1,1,6,9500,1,1,131,Basic,Basic,'Manual skilled','Manual skilled',125.3,1,0,0,1,0,1,19,0,10.8,1.4,1.74,Graduate
1,1,2,9853,1,1,112,Basic,Basic,Low-skilled,'Manual skilled',106.1,1,0,1,1,0,1,20,0,8.9,1.4,3.51,Graduate
1,1,4,9500,1,1,139,Basic,Basic,Low-skilled,Low-skilled,124,1,0,0,1,1,1,18,0,10.8,1.4,1.74,Graduate
1,44,1,171,1,39,150,Basic,Secondary,Low-skilled,Low-skilled,154.8,1,0,0,1,1,0,21,0,12.4,0.5,1.79,Graduate
1,17,2,9238,1,3,105,Basic,Basic,'Manual skilled','Manual skilled',129.7,1,0,0,1,0,1,20,0,9.4,-0.8,-3.12,Graduate
1,17,2,9500,1,1,137,Basic,Basic,Clerical/service,'Manual skilled',126.3,1,0,0,1,0,1,19,0,11.1,0.6,2.02,Graduate
1,39,1,8014,0,38,133.1,Basic,Basic,Clerical/service,'Manual skilled',95.5,0,0,0,1,1,0,29,0,11.1,0.6,2.02,Graduate
1,1,1,9773,1,1,130,Secondary,Basic,High-skilled,Clerical/service,128.6,1,0,0,1,1,0,19,0,9.4,-0.8,-3.12,Graduate
4,39,1,8014,0,1,133.1,Basic,Basic,'Manual skilled','Manual skilled',143,0,0,0,1,1,0,37,0,12.7,3.7,-1.7,Graduate
1,1,2,9670,1,1,123,Secondary,Basic,'Manual skilled','Manual skilled',120.6,1,0,0,1,1,0,19,0,8.9,1.4,3.51,Graduate
1,1,1,9773,1,1,142,Basic,Basic,Clerical/service,'Manual skilled',141.3,0,0,0,1,0,1,19,0,13.9,-0.3,0.79,Graduate
1,16,2,9147,1,1,139,Basic,Basic,Low-skilled,Low-skilled,123.7,1,0,0,1,0,1,22,0,16.2,0.3,-0.92,Graduate
1,17,5,9500,1,1,140,Secondary,Secondary,Clerical/service,High-skilled,131.1,1,0,0,1,0,0,18,0,11.1,0.6,2.02,Graduate
1,39,1,9070,1,1,130,Secondary,Secondary,Clerical/service,High-skilled,112,1,0,0,1,1,1,24,0,15.5,2.8,-4.06,Graduate
1,44,1,9238,1,1,150,Secondary,Basic,Clerical/service,Low-skilled,145.9,0,0,0,1,0,1,19,0,13.9,-0.3,0.79,Graduate
2,39,1,9991,0,1,140,Basic,Basic,Low-skilled,'Manual skilled',130.2,0,0,0,1,0,1,39,0,16.2,0.3,-0.92,Graduate
1,17,1,9238,1,1,132,Secondary,Basic,Clerical/service,Low-skilled,127.1,1,0,0,1,0,0,19,0,13.9,-0.3,0.79,Graduate
1,39,1,9500,1,1,133.1,Basic,Basic,Low-skilled,Low-skilled,120,0,0,0,1,0,1,25,0,12.7,3.7,-1.7,Graduate
2,39,1,9070,1,1,160,Higher,Secondary,High-skilled,Clerical/service,126.5,0,0,0,1,0,1,30,0,13.9,-0.3,0.79,Graduate
1,1,1,9085,1,1,140,Secondary,Secondary,High-skilled,Other/unknown,141.8,0,0,0,1,0,0,21,0,7.6,2.6,0.32,Graduate
1,53,1,9003,1,42,130,Secondary,Secondary,Clerical/service,Clerical/service,125.8,0,0,1,1,0,0,21,0,8.9,1.4,3.51,Graduate
1,1,1,9670,1,1,135,Basic,Basic,Low-skilled,'Manual skilled',132.6,1,0,0,1,0,1,18,0,8.9,1.4,3.51,Graduate
2,39,1,8014,0,1,140,Basic,Basic,Low-skilled,Low-skilled,121,0,0,0,1,0,0,50,0,10.8,1.4,1.74,Graduate
1,39,1,9003,1,19,133.1,Basic,Basic,Low-skilled,Low-skilled,100,0,0,0,1,0,0,60,0,13.9,-0.3,0.79,Graduate
1,1,1,9070,1,1,126,Basic,Basic,'Manual skilled',Clerical/service,119.4,0,0,0,1,0,1,21,0,16.2,0.3,-0.92,Graduate
1,17,1,9670,1,1,130,Higher,Basic,Clerical/service,Clerical/service,121.6,0,0,0,1,0,0,18,0,8.9,1.4,3.51,Graduate
1,17,6,9500,1,1,132,Secondary,Basic,'Manual skilled',Low-skilled,128,1,0,0,1,0,0,19,0,12.4,0.5,1.79,Graduate
1,1,1,9853,1,1,153,Basic,Basic,Low-skilled,Low-skilled,153.7,0,0,0,1,0,1,18,0,15.5,2.8,-4.06,Graduate
1,1,2,9670,1,1,131,Secondary,Basic,Clerical/service,'Manual skilled',135.9,1,0,0,1,0,1,18,0,8.9,1.4,3.51,Graduate
1,43,1,9500,1,1,136,Higher,Higher,High-skilled,High-skilled,100,0,0,0,1,0,0,18,0,13.9,-0.3,0.79,Graduate
2,39,1,9556,1,1,100,Basic,Basic,Low-skilled,Low-skilled,130,0,0,0,1,0,0,32,1,12.7,3.7,-1.7,Graduate
2,1,4,9500,1,1,140,Secondary,Basic,Clerical/service,Low-skilled,128,0,0,0,1,0,1,18,0,7.6,2.6,0.32,Graduate
1,1,3,9500,1,1,144,Basic,Basic,Clerical/service,'Manual skilled',128,1,0,0,1,0,1,18,0,10.8,1.4,1.74,Graduate
1,1,1,9500,1,1,118,Basic,Basic,'Manual skilled','Manual skilled',115.2,1,0,0,1,0,0,19,0,11.1,0.6,2.02,Graduate
1,1,1,9670,1,1,117,Secondary,Basic,Clerical/service,High-skilled,113.5,1,0,0,1,0,0,20,0,9.4,-0.8,-3.12,Graduate
1,1,1,9147,1,1,158,Basic,Basic,Low-skilled,'Manual skilled',130,1,0,0,1,0,0,20,0,7.6,2.6,0.32,Graduate
1,17,6,9254,1,1,125,Secondary,Secondary,Clerical/service,High-skilled,120.5,1,0,0,1,1,0,18,0,11.1,0.6,2.02,Graduate
1,39,1,9500,1,19,133.1,Secondary,Higher,Clerical/service,High-skilled,100,0,0,0,1,0,0,24,0,12.7,3.7,-1.7,Graduate
1,1,1,171,1,1,145,Higher,Secondary,High-skilled,Clerical/service,160.1,0,0,0,1,0,1,19,0,8.9,1.4,3.51,Graduate
1,17,6,9670,1,1,113,Higher,Secondary,High-skilled,Other/unknown,112.3,0,0,0,1,0,0,20,0,11.1,0.6,2.02,Graduate
1,18,2,9238,1,1,126,Basic,Basic,Clerical/service,'Manual skilled',129.9,1,0,0,1,1,1,20,0,10.8,1.4,1.74,Graduate
2,39,1,8014,0,3,110,Basic,Basic,Low-skilled,Low-skilled,160.5,0,0,0,1,0,0,38,0,13.9,-0.3,0.79,Graduate
1,44,1,9003,1,39,180,Secondary,Higher,Clerical/service,High-skilled,180,0,0,0,1,0,0,21,0,15.5,2.8,-4.06,Graduate
1,17,4,9773,1,1,127,Secondary,Basic,Clerical/service,High-skilled,115.8,1,0,0,1,0,0,18,0,13.9,-0.3,0.79,Graduate
1,44,1,9003,1,39,150,Basic,Basic,Low-skilled,'Manual skilled',150,1,0,0,1,1,0,20,0,16.2,0.3,-0.92,Graduate
1,1,1,9085,1,1,144,Higher,Higher,'Manual skilled','Manual skilled',137.6,1,0,0,1,0,1,19,1,10.8,1.4,1.74,Graduate
1,17,6,9500,1,1,131,Higher,Basic,Clerical/service,Clerical/service,127.2,1,0,0,1,0,1,19,0,11.1,0.6,2.02,Graduate
2,39,1,8014,0,19,100,Unknown,Unknown,Other/unknown,Other/unknown,100,0,0,0,1,0,0,46,0,7.6,2.6,0.32,Graduate
1,17,4,9556,1,1,112,Secondary,Secondary,Clerical/service,Other/unknown,107.1,1,0,0,1,0,0,20,0,12.4,0.5,1.79,Graduate
1,1,1,9773,1,1,170,Secondary,Basic,Low-skilled,'Manual skilled',155,0,0,0,1,1,1,18,0,11.1,0.6,2.02,Graduate
1,1,1,9238,1,1,151,Basic,Secondary,Low-skilled,Low-skilled,138.4,1,0,0,1,0,1,20,0,12.7,3.7,-1.7,Graduate
1,1,1,9500,1,1,141,Basic,Basic,Clerical/service,'Manual skilled',125.5,0,0,0,1,0,0,18,0,9.4,-0.8,-3.12,Graduate
1,16,1,9500,1,1,133.1,Basic,Basic,Low-skilled,Low-skilled,95,1,0,0,1,0,0,20,0,12.4,0.5,1.79,Graduate
1,1,1,9500,1,1,130,Higher,Higher,High-skilled,Clerical/service,118.8,0,0,0,1,0,0,18,0,11.1,0.6,2.02,Graduate
1,51,1,171,1,1,128,Higher,Secondary,High-skilled,High-skilled,131.2,1,0,0,1,1,0,21,0,8.9,1.4,3.51,Graduate
1,17,4,9670,1,1,135,Basic,Basic,Low-skilled,'Manual skilled',127,1,0,0,1,0,0,18,0,11.1,0.6,2.02,Graduate
1,18,2,9500,1,1,135,Basic,Secondary,Clerical/service,Clerical/service,128.9,1,0,0,1,0,1,19,0,11.1,0.6,2.02,Graduate
1,1,1,9670,1,1,126,Secondary,Secondary,Low-skilled,Other/unknown,126.7,1,0,0,1,0,1,20,0,8.9,1.4,3.51,Graduate
1,17,4,9670,1,1,110,Secondary,Basic,'Manual skilled','Manual skilled',111.1,1,0,0,0,0,0,18,0,8.9,1.4,3.51,Graduate
1,53,1,9085,1,42,140,Secondary,Higher,Clerical/service,High-skilled,142.8,1,0,0,0,0,1,20,0,8.9,1.4,3.51,Graduate
1,16,1,9085,1,1,138,Basic,Basic,Low-skilled,Low-skilled,123,1,0,0,1,0,1,20,0,13.9,-0.3,0.79,Graduate
1,1,1,9773,1,1,133.1,Secondary,Higher,Low-skilled,Low-skilled,116,0,0,0,1,1,0,20,0,16.2,0.3,-0.92,Graduate
1,17,2,9254,1,1,124,Basic,Basic,Low-skilled,Low-skilled,123.3,1,0,0,1,0,0,22,1,13.9,-0.3,0.79,Graduate
1,43,1,9556,1,1,130,Secondary,Basic,Clerical/service,Clerical/service,128,1,0,0,1,1,0,20,0,15.5,2.8,-4.06,Graduate
1,1,1,9070,1,1,138,Basic,Basic,High-skilled,High-skilled,133.1,0,0,0,1,1,0,18,0,8.9,1.4,3.51,Graduate
2,43,1,9991,0,1,100,Basic,Basic,Low-skilled,Low-skilled,128.2,0,0,0,1,1,0,46,0,7.6,2.6,0.32,Graduate
1,18,1,9070,1,1,143,Basic,Basic,'Manual skilled',Clerical/service,141.6,0,0,0,1,0,1,19,0,10.8,1.4,1.74,Graduate
1,1,6,9147,1,1,139,Basic,Secondary,Clerical/service,Clerical/service,125,1,0,0,1,0,0,18,0,7.6,2.6,0.32,Graduate
1,1,1,8014,0,1,100,Basic,Basic,'Manual skilled',Other/unknown,112.8,0,0,0,1,0,1,23,0,12.7,3.7,-1.7,Graduate
1,17,1,171,1,1,143,Basic,Basic,Clerical/service,Low-skilled,156.3,1,0,0,1,1,1,19,0,11.1,0.6,2.02,Graduate
1,1,1,171,1,1,146,Basic,Basic,Low-skilled,'Manual skilled',153,1,0,0,1,0,1,21,0,11.1,0.6,2.02,Graduate
1,1,1,9500,1,1,118,Secondary,Basic,Low-skilled,Other/unknown,113.1,1,0,0,1,0,0,19,0,11.1,0.6,2.02,Graduate
2,39,1,9130,1,19,133.1,Higher,Secondary,High-skilled,Low-skilled,157,1,0,0,1,1,0,44,0,10.8,1.4,1.74,Graduate
1,1,4,9773,1,1,122,Basic,Basic,Low-skilled,'Manual skilled',121,1,0,0,1,0,0,20,0,13.9,-0.3,0.79,Graduate
1,1,1,9500,1,1,151,Secondary,Secondary,Clerical/service,High-skilled,132.3,0,0,0,1,1,0,19,0,12.7,3.7,-1.7,Graduate
1,18,1,9147,1,1,128,Basic,Basic,Low-skilled,Clerical/service,121.7,1,0,0,1,0,0,19,0,12.4,0.5,1.79,Graduate
1,1,1,9130,1,1,151,Higher,Secondary,High-skilled,Clerical/service,151,1,0,0,1,0,0,18,0,16.2,0.3,-0.92,Graduate
1,39,1,9085,1,3,150,Higher,Higher,Clerical/service,'Manual skilled',173.3,1,0,0,1,0,0,25,0,13.9,-0.3,0.79,Graduate
1,17,4,9853,1,1,121,Basic,Basic,Clerical/service,'Manual skilled',113.7,1,0,0,1,0,1,20,0,9.4,-0.8,-3.12,Graduate
1,17,3,9500,1,1,143,Basic,Secondary,Low-skilled,Clerical/service,133.8,1,0,0,1,0,0,18,0,7.6,2.6,0.32,Graduate
1,17,1,9773,1,1,177,Higher,Secondary,High-skilled,High-skilled,155.7,0,0,1,1,0,1,18,0,8.9,1.4,3.51,Graduate
1,1,1,9238,1,1,141,Basic,Basic,Low-skilled,Other/unknown,125.6,1,0,0,1,0,1,18,0,9.4,-0.8,-3.12,Graduate
1,1,4,9500,1,1,136,Basic,Basic,Low-skilled,Low-skilled,123,1,0,0,1,0,0,19,0,10.8,1.4,1.74,Graduate
2,39,1,9003,1,1,150,Basic,Basic,Low-skilled,'Manual skilled',140,0,0,0,1,1,0,60,0,15.5,2.8,-4.06,Graduate
1,18,1,9500,1,1,178,Basic,Secondary,Clerical/service,'Manual skilled',174.7,0,0,0,1,0,0,18,0,13.9,-0.3,0.79,Graduate
2,39,1,9085,1,1,133.1,Basic,Basic,Other/unknown,Other/unknown,110.3,0,0,0,1,1,0,33,0,7.6,2.6,0.32,Graduate
1,43,1,8014,0,1,145,Unknown,Unknown,Other/unknown,Other/unknown,134.5,1,0,0,1,1,0,25,1,9.4,-0.8,-3.12,Graduate
1,1,2,9085,1,1,130,Secondary,Basic,Clerical/service,Clerical/service,122.3,1,0,0,1,0,0,18,0,9.4,-0.8,-3.12,Graduate
1,1,1,9500,1,1,150,Secondary,Secondary,Clerical/service,High-skilled,155.6,0,0,0,1,0,0,19,0,16.2,0.3,-0.92,Graduate
1,1,6,9147,1,1,127,Secondary,Basic,High-skilled,'Manual skilled',120,1,0,0,1,1,0,19,0,8.9,1.4,3.51,Graduate
1,17,6,9238,1,1,135,Secondary,Basic,'Manual skilled','Manual skilled',126.6,1,0,0,1,0,1,19,0,12.7,3.7,-1.7,Graduate
1,1,1,9238,1,1,134,Secondary,Secondary,Low-skilled,'Manual skilled',130.9,0,0,1,1,0,0,18,0,13.9,-0.3,0.79,Graduate
1,1,1,9254,1,1,115,Higher,Higher,Clerical/service,Clerical/service,112.6,0,0,0,1,1,1,20,0,8.9,1.4,3.51,Graduate
1,1,5,9119,1,1,135,Basic,Basic,Other/unknown,Other/unknown,122.1,1,0,0,1,1,0,20,0,7.6,2.6,0.32,Graduate
1,1,1,9670,1,1,157,Basic,Basic,Low-skilled,'Manual skilled',146.2,1,0,0,1,0,1,20,0,11.1,0.6,2.02,Graduate
1,1,1,9773,1,1,146,Basic,Basic,Low-skilled,'Manual skilled',149.2,1,0,0,1,1,1,21,0,12.7,3.7,-1.7,Graduate
1,1,2,9773,1,1,130,Basic,Basic,High-skilled,Low-skilled,126.5,1,0,0,1,0,0,18,0,12.7,3.7,-1.7,Graduate
1,1,1,9238,1,1,107,Basic,Basic,'Manual skilled','Manual skilled',103.5,1,0,0,1,0,0,20,0,12.4,0.5,1.79,Graduate
1,1,1,171,1,1,130,Basic,Basic,Low-skilled,'Manual skilled',122,1,0,0,1,1,0,20,0,7.6,2.6,0.32,Graduate
1,17,5,9085,1,1,118,Secondary,Basic,Clerical/service,'Manual skilled',122.2,1,0,0,1,0,1,20,0,13.9,-0.3,0.79,Graduate
1,17,2,8014,0,1,134,Secondary,Basic,Clerical/service,Other/unknown,126,1,0,0,1,1,0,22,0,7.6,2.6,0.32,Graduate
2,39,1,9003,1,19,133.1,Basic,Basic,Low-skilled,Clerical/service,140,0,0,1,1,0,0,29,0,11.1,0.6,2.02,Graduate
1,7,1,9853,1,40,110,Higher,Higher,High-skilled,High-skilled,110,0,0,1,1,0,0,40,0,12.4,0.5,1.79,Graduate
1,1,1,9254,1,1,136,Higher,Higher,High-skilled,High-skilled,128.7,0,0,0,1,1,0,19,0,8.9,1.4,3.51,Graduate
4,42,1,9147,1,1,110,Basic,Basic,Low-skilled,Low-skilled,128.2,0,0,0,1,0,0,41,0,9.4,-0.8,-3.12,Graduate
1,1,1,9147,1,1,102,Basic,Basic,Low-skilled,Low-skilled,99.6,1,0,0,1,0,1,21,0,11.1,0.6,2.02,Graduate
2,39,1,8014,0,1,120,Basic,Basic,Low-skilled,Low-skilled,117,1,0,0,1,0,0,33,0,12.4,0.5,1.79,Graduate
1,1,2,9670,1,1,130,Basic,Basic,Clerical/service,Clerical/service,123.4,1,0,0,1,0,0,21,0,9.4,-0.8,-3.12,Graduate
1,1,1,9070,1,1,141,Basic,Basic,Low-skilled,Low-skilled,126.7,1,0,1,1,0,1,20,0,12.7,3.7,-1.7,Graduate
1,17,2,9500,1,1,125,Basic,Basic,Clerical/service,Clerical/service,114.5,1,0,0,1,0,0,18,0,16.2,0.3,-0.92,Graduate
1,17,1,9500,1,1,128,Basic,Basic,Low-skilled,'Manual skilled',124.3,1,0,0,1,0,1,19,0,15.5,2.8,-4.06,Graduate
1,7,1,8014,0,3,120,Basic,Basic,Clerical/service,High-skilled,121.3,0,0,0,1,0,0,32,0,12.7,3.7,-1.7,Graduate
1,1,1,9773,1,1,140,Basic,Basic,'Manual skilled',Clerical/service,135.1,1,0,0,1,0,0,18,0,9.4,-0.8,-3.12,Graduate
1,1,1,171,1,1,172,Secondary,Secondary,Clerical/service,Low-skilled,167.1,0,0,0,1,1,1,18,0,16.2,0.3,-0.92,Graduate
2,43,2,9147,1,1,133.1,Basic,Basic,Low-skilled,Low-skilled,109,1,0,0,1,0,0,46,0,9.4,-0.8,-3.12,Graduate
2,43,3,8014,0,19,100,Basic,Basic,Low-skilled,Low-skilled,120,1,0,0,1,1,0,41,0,9.4,-0.8,-3.12,Graduate
1,1,2,9773,1,1,142,Basic,Basic,Low-skilled,Low-skilled,132.9,1,0,0,1,1,0,18,0,10.8,1.4,1.74,Graduate
1,17,1,9670,1,1,125,Basic,Basic,'Manual skilled',Clerical/service,126.4,0,0,0,1,1,1,18,0,16.2,0.3,-0.92,Graduate
1,1,1,9070,1,1,131,Higher,Basic,Clerical/service,Clerical/service,130.3,1,0,0,1,1,1,20,0,16.2,0.3,-0.92,Graduate
2,39,1,8014,0,1,133.1,Basic,Basic,Low-skilled,'Manual skilled',162.5,0,0,0,1,1,0,54,0,8.9,1.4,3.51,Graduate
1,1,1,9085,1,1,134,Secondary,Secondary,Low-skilled,Low-skilled,133,1,0,0,1,0,1,20,0,11.1,0.6,2.02,Graduate
1,1,3,9500,1,1,142,Secondary,Secondary,Clerical/service,'Manual skilled',131,1,0,0,1,0,0,18,0,10.8,1.4,1.74,Graduate
1,1,4,9147,1,1,123,Secondary,Secondary,Low-skilled,'Manual skilled',117.4,1,0,0,1,0,1,18,0,8.9,1.4,3.51,Graduate
1,1,4,9500,1,1,137,Basic,Basic,Low-skilled,High-skilled,125,1,0,0,1,0,0,19,0,7.6,2.6,0.32,Graduate
1,17,2,9254,1,1,131,Secondary,Basic,Low-skilled,Low-skilled,130.3,1,0,0,1,0,1,18,0,13.9,-0.3,0.79,Graduate
1,1,1,9853,1,1,113,Basic,Basic,High-skilled,'Manual skilled',112.3,0,0,0,1,0,1,20,0,11.1,0.6,2.02,Graduate
1,17,1,9238,1,1,138,Basic,Basic,Low-skilled,'Manual skilled',134.2,1,0,0,1,0,1,18,0,11.1,0.6,2.02,Graduate
1,17,1,9085,1,1,132,Basic,Basic,Clerical/service,Low-skilled,119.1,0,0,0,1,0,0,20,0,12.4,0.5,1.79,Graduate
1,1,1,9070,1,1,133.1,Secondary,Secondary,Low-skilled,Low-skilled,155,0,0,0,1,0,1,21,0,16.2,0.3,-0.92,Graduate
1,1,1,9500,1,1,150,Basic,Basic,Low-skilled,'Manual skilled',136.5,1,0,0,1,0,1,18,0,9.4,-0.8,-3.12,Graduate
1,1,1,9773,1,1,150,Basic,Basic,Low-skilled,Clerical/service,143,0,0,0,1,0,0,18,0,12.7,3.7,-1.7,Graduate
1,1,3,9500,1,1,139,Secondary,Basic,Low-skilled,High-skilled,130.3,1,0,0,1,0,1,18,0,9.4,-0.8,-3.12,Graduate
1,17,1,9773,1,1,150,Basic,Basic,'Manual skilled','Manual skilled',137.8,1,0,0,1,0,1,18,0,8.9,1.4,3.51,Graduate
1,1,1,9500,1,1,152,Basic,Basic,High-skilled,'Manual skilled',156.9,0,0,0,1,0,1,18,0,15.5,2.8,-4.06,Graduate
1,1,2,9773,1,1,130,Secondary,Unknown,Low-skilled,Low-skilled,124.8,1,0,0,1,0,1,20,0,12.4,0.5,1.79,Graduate
1,1,1,9238,1,1,136,Basic,Secondary,Clerical/service,High-skilled,125.2,1,0,0,1,0,0,20,0,7.6,2.6,0.32,Graduate
1,1,1,9773,1,1,158,Basic,Basic,Low-skilled,'Manual skilled',144.7,1,0,0,1,0,1,19,0,12.7,3.7,-1.7,Graduate
1,17,1,9773,1,1,138,Secondary,Basic,Low-skilled,Low-skilled,124,0,0,0,1,0,1,19,0,11.1,0.6,2.02,Graduate
1,17,4,9254,1,1,106,Basic,Basic,Low-skilled,'Manual skilled',116.9,1,0,0,1,0,0,20,0,11.1,0.6,2.02,Graduate
1,1,1,171,1,1,141,Secondary,Basic,Clerical/service,'Manual skilled',141.4,1,0,0,1,0,1,18,0,13.9,-0.3,0.79,Graduate
1,42,1,9500,1,1,133,Secondary,Secondary,Clerical/service,Clerical/service,100,0,0,0,1,0,0,20,0,12.7,3.7,-1.7,Graduate
1,44,1,9003,1,39,160,Basic,Basic,Low-skilled,'Manual skilled',160,0,0,0,1,0,1,19,0,15.5,2.8,-4.06,Graduate
1,1,1,9773,1,1,137,Secondary,Secondary,Clerical/service,Clerical/service,129.3,1,0,0,1,1,0,18,0,12.7,3.7,-1.7,Graduate
1,17,1,9853,1,1,150,Basic,Basic,High-skilled,Clerical/service,135,0,0,0,1,0,0,29,0,12.7,3.7,-1.7,Graduate
1,1,3,9238,1,1,125,Basic,Secondary,Low-skilled,Other/unknown,123.6,1,0,0,1,0,0,20,0,9.4,-0.8,-3.12,Graduate
1,17,4,9147,1,1,125,Basic,Basic,Clerical/service,Clerical/service,118,1,0,0,1,0,0,19,0,8.9,1.4,3.51,Graduate
1,1,1,9773,1,1,141,Basic,Basic,Low-skilled,Low-skilled,128.4,1,0,0,1,0,0,18,0,11.1,0.6,2.02,Graduate
1,1,4,9500,1,1,140,Basic,Basic,'Manual skilled','Manual skilled',133.2,1,0,0,1,0,1,20,0,15.5,2.8,-4.06,Graduate
1,17,1,9085,1,1,128,Basic,Basic,Low-skilled,Low-skilled,116.5,1,0,0,1,1,0,18,0,10.8,1.4,1.74,Graduate
1,1,1,9773,1,1,132,Higher,Secondary,Low-skilled,Low-skilled,126.4,1,1,0,1,0,1,18,0,10.8,1.4,1.74,Graduate
1,15,1,9670,1,1,160,Basic,Secondary,Low-skilled,Low-skilled,149.5,1,0,0,0,1,0,19,0,13.9,-0.3,0.79,Graduate
1,1,1,9670,1,1,131,Secondary,Secondary,Clerical/service,Low-skilled,122.3,0,0,0,1,1,0,19,0,9.4,-0.8,-3.12,Graduate
1,17,1,9500,1,1,135,Basic,Basic,Low-skilled,Low-skilled,129.2,0,0,0,1,0,1,18,0,11.1,0.6,2.02,Graduate
1,1,1,9500,1,1,127,Basic,Basic,Low-skilled,'Manual skilled',123.9,1,0,0,1,0,1,18,0,15.5,2.8,-4.06,Graduate
1,1,1,9670,1,1,146,Secondary,Secondary,Low-skilled,'Manual skilled',149.5,1,0,0,1,1,1,17,0,11.1,0.6,2.02,Graduate
1,1,3,171,1,1,147,Secondary,Basic,Low-skilled,High-skilled,151.6,1,0,0,1,0,0,19,0,13.9,-0.3,0.79,Graduate
1,1,1,9147,1,1,151,Secondary,Basic,Clerical/service,'Manual skilled',137,1,0,0,1,1,0,18,0,8.9,1.4,3.51,Graduate
1,1,4,9500,1,1,148,Basic,Basic,Clerical/service,Clerical/service,137,1,0,0,1,0,0,18,0,9.4,-0.8,-3.12,Graduate
1,1,1,9500,1,1,152,Secondary,Secondary,Clerical/service,Clerical/service,141,1,0,0,1,0,1,18,0,12.4,0.5,1.79,Graduate
1,1,4,9500,1,1,117,Secondary,Secondary,Clerical/service,'Manual skilled',109.3,1,0,0,1,0,1,18,0,11.1,0.6,2.02,Graduate
1,15,1,9147,1,1,140,Basic,Higher,'Manual skilled',Clerical/service,140,0,0,1,1,1,0,19,1,12.4,0.5,1.79,Graduate
1,1,2,9147,1,1,133,Higher,Basic,High-skilled,'Manual skilled',120.4,1,0,0,1,0,0,22,0,8.9,1.4,3.51,Graduate
1,53,1,9147,1,42,140,Higher,Higher,High-skilled,High-skilled,140.2,0,0,0,1,0,0,20,0,8.9,1.4,3.51,Graduate
1,1,6,9119,1,1,126,Basic,Basic,'Manual skilled',High-skilled,116.6,1,0,0,1,1,1,20,0,8.9,1.4,3.51,Graduate
1,1,1,9238,1,1,143,Basic,Unknown,Low-skilled,Low-skilled,133.6,1,0,0,1,0,0,18,0,9.4,-0.8,-3.12,Graduate
1,39,1,9991,0,3,130,Basic,Basic,Low-skilled,Low-skilled,146.2,0,0,0,1,0,0,28,0,10.8,1.4,1.74,Graduate
1,1,1,9500,1,1,125,Basic,Basic,Low-skilled,Low-skilled,122.4,1,0,0,1,1,0,19,0,11.1,0.6,2.02,Graduate
1,43,1,9070,1,1,133,Secondary,Higher,Low-skilled,High-skilled,128.8,0,0,0,1,1,0,19,0,10.8,1.4,1.74,Graduate
1,44,1,8014,0,39,160,Basic,Basic,'Manual skilled','Manual skilled',156.1,0,0,0,1,0,1,21,0,13.9,-0.3,0.79,Graduate
1,16,2,9238,1,1,133,Basic,Basic,Clerical/service,Clerical/service,133.7,1,0,0,1,0,0,18,0,10.8,1.4,1.74,Graduate
1,1,4,9773,1,1,125,Basic,Basic,Low-skilled,'Manual skilled',129.6,1,0,0,1,1,0,18,0,12.4,0.5,1.79,Graduate
1,1,3,9500,1,1,134,Basic,Basic,'Manual skilled',Low-skilled,132.8,1,0,0,1,0,1,19,0,10.8,1.4,1.74,Graduate
1,1,4,9500,1,1,147,Secondary,Secondary,Clerical/service,Low-skilled,124.5,1,0,0,1,0,1,19,0,10.8,1.4,1.74,Graduate
1,39,1,9853,1,1,130,Basic,Basic,Low-skilled,Clerical/service,102.5,0,0,0,1,0,0,27,0,7.6,2.6,0.32,Graduate
1,1,2,9238,1,1,140,Basic,Basic,Low-skilled,Low-skilled,140.7,1,0,0,1,0,1,18,0,10.8,1.4,1.74,Graduate
1,51,1,9991,0,1,134,Secondary,Secondary,Clerical/service,High-skilled,120.6,1,0,0,1,1,0,27,0,11.1,0.6,2.02,Graduate
1,43,1,9853,1,1,140,Higher,Secondary,High-skilled,High-skilled,128.3,1,0,0,1,0,0,35,0,12.4,0.5,1.79,Graduate
1,1,2,9147,1,1,142,Basic,Basic,Low-skilled,Low-skilled,137.5,1,0,0,1,1,0,19,0,13.9,-0.3,0.79,Graduate
1,17,2,8014,0,1,133.1,Basic,Secondary,High-skilled,High-skilled,118,0,0,0,1,0,1,20,0,10.8,1.4,1.74,Graduate
4,43,1,9991,0,1,164,Basic,Basic,'Manual skilled','Manual skilled',131.8,0,0,0,1,0,0,31,0,9.4,-0.8,-3.12,Graduate
1,17,1,9556,1,1,133,Basic,Basic,Low-skilled,Low-skilled,124.4,1,0,0,1,0,1,18,0,15.5,2.8,-4.06,Graduate
1,1,5,9500,1,1,122,Basic,Higher,Low-skilled,High-skilled,116.8,1,0,0,1,0,0,20,0,13.9,-0.3,0.79,Graduate
1,1,1,9085,1,1,142,Basic,Basic,Low-skilled,Other/unknown,127,1,0,0,1,0,0,18,0,10.8,1.4,1.74,Graduate
1,17,1,9254,1,1,160,Basic,Basic,Clerical/service,High-skilled,152,0,0,0,1,0,0,18,0,12.7,3.7,-1.7,Graduate
1,44,1,9085,1,39,150,Basic,Basic,Clerical/service,'Manual skilled',150,1,0,0,1,0,0,19,0,13.9,-0.3,0.79,Graduate
1,1,1,9238,1,1,141,Basic,Secondary,Clerical/service,'Manual skilled',132.6,0,0,0,1,0,1,18,0,12.4,0.5,1.79,Graduate
1,1,2,9670,1,1,135,Basic,Basic,'Manual skilled',Other/unknown,121.4,0,0,0,1,1,0,19,0,9.4,-0.8,-3.12,Graduate
1,17,2,9070,1,1,126,Basic,Basic,Low-skilled,'Manual skilled',129.9,1,0,0,1,1,1,19,0,12.4,0.5,1.79,Graduate
2,43,1,8014,0,1,110,Basic,Basic,Low-skilled,High-skilled,100,0,0,0,1,0,0,34,0,9.4,-0.8,-3.12,Graduate
1,17,1,9238,1,1,135,Secondary,Basic,Clerical/service,Clerical/service,129.1,0,0,0,1,0,0,19,0,15.5,2.8,-4.06,Graduate
1,1,6,9500,1,1,133,Secondary,Secondary,Low-skilled,Low-skilled,119.7,1,1,1,1,1,0,19,0,12.4,0.5,1.79,Graduate
1,17,3,171,1,1,125,Basic,Basic,Clerical/service,Other/unknown,120.5,1,0,0,1,1,0,22,0,12.4,0.5,1.79,Graduate
1,1,3,9773,1,1,145,Basic,Basic,Low-skilled,Clerical/service,133.1,0,0,0,1,0,1,20,0,10.8,1.4,1.74,Graduate
1,1,3,171,1,1,140,Basic,Basic,Low-skilled,Low-skilled,124.3,1,0,0,1,1,0,18,0,7.6,2.6,0.32,Graduate
1,39,1,9500,1,3,122,Basic,Secondary,Clerical/service,'Manual skilled',135.8,0,0,0,1,0,0,24,0,10.8,1.4,1.74,Graduate
1,17,6,9670,1,1,125,Basic,Secondary,Low-skilled,'Manual skilled',125,1,0,0,1,1,0,20,0,10.8,1.4,1.74,Graduate
1,1,3,171,1,1,155,Higher,Higher,High-skilled,High-skilled,144.2,1,0,0,1,1,0,19,0,12.7,3.7,-1.7,Graduate
1,1,3,171,1,1,139,Basic,Basic,Low-skilled,'Manual skilled',142.2,1,0,0,1,1,1,20,0,8.9,1.4,3.51,Graduate
1,17,1,9670,1,1,118,Basic,Basic,'Manual skilled',Low-skilled,113.5,1,0,0,1,0,1,19,0,12.4,0.5,1.79,Graduate
1,43,1,9130,1,1,125,Secondary,Higher,High-skilled,High-skilled,125,1,0,0,1,0,0,21,0,10.8,1.4,1.74,Graduate
1,1,2,9773,1,1,130,Secondary,Secondary,Low-skilled,Clerical/service,126.2,1,0,0,1,0,0,18,0,12.7,3.7,-1.7,Graduate
1,1,2,9500,1,1,137,Secondary,Higher,Clerical/service,High-skilled,124.6,0,0,0,1,0,0,18,0,15.5,2.8,-4.06,Graduate
1,1,1,9085,1,1,133.1,Basic,Basic,Clerical/service,'Manual skilled',110,1,0,0,1,0,1,21,0,11.1,0.6,2.02,Graduate
1,1,1,9085,1,1,126,Secondary,Secondary,Low-skilled,Low-skilled,127.4,1,0,0,1,0,0,19,0,15.5,2.8,-4.06,Graduate
1,1,4,9238,1,1,127,Secondary,Basic,Low-skilled,'Manual skilled',120.4,1,0,0,1,0,1,19,0,11.1,0.6,2.02,Graduate
1,1,1,9070,1,1,128,Basic,Higher,'Manual skilled',High-skilled,126.3,1,0,0,1,0,0,19,0,15.5,2.8,-4.06,Graduate
1,17,2,9853,1,1,125,Secondary,Basic,Clerical/service,Clerical/service,119.4,1,0,0,1,0,0,18,0,12.4,0.5,1.79,Graduate
1,17,2,9773,1,1,133.1,Basic,Secondary,Low-skilled,Low-skilled,105,1,0,0,0,0,0,21,1,8.9,1.4,3.51,Graduate
1,15,1,9773,1,1,120,Basic,Basic,Clerical/service,Clerical/service,120,1,0,0,1,0,0,22,1,12.4,0.5,1.79,Graduate
1,53,1,9085,1,42,150,Higher,Secondary,High-skilled,'Manual skilled',153.8,1,0,0,1,0,0,21,0,8.9,1.4,3.51,Graduate
4,43,1,8014,0,1,140,Basic,Basic,Low-skilled,Low-skilled,126,0,0,0,1,0,1,39,0,12.7,3.7,-1.7,Graduate
1,39,1,8014,0,19,149,Unknown,Unknown,Other/unknown,Other/unknown,126.3,0,0,0,1,0,0,55,0,7.6,2.6,0.32,Graduate
1,43,1,9238,1,1,149,Basic,Basic,Low-skilled,'Manual skilled',130.5,1,0,0,1,0,0,28,0,10.8,1.4,1.74,Graduate
1,17,1,9003,1,1,120,Basic,Basic,Clerical/service,Low-skilled,131.4,1,0,0,1,1,1,23,0,15.5,2.8,-4.06,Graduate
1,17,6,9773,1,1,141,Basic,Basic,Clerical/service,Clerical/service,127.7,1,0,0,1,1,0,18,0,9.4,-0.8,-3.12,Graduate
1,44,1,9003,1,39,140,Basic,Basic,Low-skilled,'Manual skilled',140,1,0,0,1,1,1,20,0,12.4,0.5,1.79,Graduate
1,1,2,9238,1,1,136,Basic,Basic,Low-skilled,'Manual skilled',139.2,1,0,0,1,0,0,18,0,9.4,-0.8,-3.12,Graduate
1,17,1,9238,1,1,131,Secondary,Secondary,Clerical/service,Other/unknown,129.3,0,0,0,1,0,0,19,0,11.1,0.6,2.02,Graduate
1,1,4,9500,1,1,125,Basic,Secondary,High-skilled,High-skilled,117.8,1,0,0,1,0,0,18,0,15.5,2.8,-4.06,Graduate
1,1,4,9500,1,1,133.1,Basic,Basic,Low-skilled,Low-skilled,119.6,1,0,0,1,0,1,19,0,12.4,0.5,1.79,Graduate
1,1,1,9500,1,1,144,Basic,Basic,Low-skilled,High-skilled,150.5,0,0,0,1,0,0,20,0,7.6,2.6,0.32,Graduate
1,39,1,9991,0,19,133.1,Basic,Basic,Low-skilled,Other/unknown,142.7,0,0,1,1,1,1,34,0,16.2,0.3,-0.92,Graduate
1,1,1,9773,1,1,140,Basic,Basic,Low-skilled,Low-skilled,132,0,0,0,1,1,1,18,0,12.7,3.7,-1.7,Graduate
1,17,1,9500,1,1,152,Basic,Basic,Clerical/service,Low-skilled,132.5,0,0,0,1,1,0,21,0,10.8,1.4,1.74,Graduate
1,43,2,9500,1,6,119.1,Secondary,Basic,Clerical/service,Other/unknown,119.1,0,0,0,1,1,0,22,0,7.6,2.6,0.32,Graduate
1,18,2,9500,1,1,141,Secondary,Secondary,Clerical/service,High-skilled,126.8,1,0,0,1,0,1,20,1,9.4,-0.8,-3.12,Graduate
1,1,4,9254,1,1,132,Secondary,Basic,Clerical/service,'Manual skilled',122.6,1,0,0,1,0,1,18,0,8.9,1.4,3.51,Graduate
1,18,1,9853,1,1,117,Basic,Basic,Clerical/service,Other/unknown,113.5,1,0,0,1,0,0,19,0,12.4,0.5,1.79,Graduate
1,1,3,9147,1,1,143,Secondary,Secondary,Clerical/service,'Manual skilled',133.2,1,0,0,1,0,1,18,0,12.7,3.7,-1.7,Graduate
1,17,1,9500,1,1,134,Basic,Secondary,Low-skilled,'Manual skilled',133.5,1,0,0,1,1,1,20,0,15.5,2.8,-4.06,Graduate
1,1,2,9500,1,1,119,Secondary,Secondary,Clerical/service,Clerical/service,115.2,1,0,0,1,0,1,20,0,13.9,-0.3,0.79,Graduate
1,1,1,9085,1,1,120,Secondary,Basic,High-skilled,Clerical/service,116.7,0,0,0,1,0,0,20,0,9.4,-0.8,-3.12,Graduate
1,1,4,9254,1,1,105,Secondary,Basic,Low-skilled,'Manual skilled',106.1,1,0,0,1,0,0,20,0,13.9,-0.3,0.79,Graduate
1,1,1,9853,1,1,135,Basic,Secondary,Low-skilled,'Manual skilled',137.1,1,0,0,1,0,0,18,0,7.6,2.6,0.32,Graduate
1,1,1,9238,1,1,128,Basic,Basic,Clerical/service,Clerical/service,124.5,1,0,0,1,0,1,18,0,12.4,0.5,1.79,Graduate
1,17,1,9147,1,1,122,Basic,Basic,Clerical/service,'Manual skilled',119.9,0,0,0,1,0,1,21,0,12.7,3.7,-1.7,Graduate
1,7,1,9991,0,40,130,Basic,Basic,'Manual skilled',High-skilled,130,0,0,0,1,0,0,26,0,11.1,0.6,2.02,Graduate
1,1,1,9670,1,1,123,Secondary,Secondary,Low-skilled,Low-skilled,119.2,1,0,0,1,0,1,18,0,12.4,0.5,1.79,Graduate
1,17,3,9238,1,1,141,Higher,Higher,High-skilled,High-skilled,124.9,1,0,0,1,0,0,19,0,12.7,3.7,-1.7,Graduate
1,1,1,9500,1,1,162,Basic,Secondary,Clerical/service,Clerical/service,147.5,1,0,0,1,0,1,18,0,9.4,-0.8,-3.12,Graduate
1,1,6,9500,1,1,144,Secondary,Basic,Low-skilled,Clerical/service,130.8,1,0,0,1,0,1,19,0,12.7,3.7,-1.7,Graduate
1,17,1,9085,1,1,140,Basic,Basic,'Manual skilled',Low-skilled,129.9,0,0,0,1,0,0,19,0,9.4,-0.8,-3.12,Graduate
1,17,3,9500,1,1,132,Basic,Basic,Clerical/service,High-skilled,127.3,1,0,0,1,0,0,20,0,7.6,2.6,0.32,Graduate
1,16,1,9556,1,1,137,Basic,Basic,Low-skilled,'Manual skilled',122.7,1,0,0,1,0,1,18,0,12.4,0.5,1.79,Graduate
1,39,1,9991,0,1,120,Basic,Basic,Low-skilled,Low-skilled,111.1,0,0,0,1,0,0,31,0,7.6,2.6,0.32,Graduate
1,17,2,9500,1,1,141,Basic,Secondary,Low-skilled,Clerical/service,127.3,1,0,0,1,0,1,19,0,7.6,2.6,0.32,Graduate
1,17,1,9500,1,1,131,Secondary,Basic,Clerical/service,High-skilled,125.4,1,0,0,1,0,0,19,0,15.5,2.8,-4.06,Graduate
1,1,2,9500,1,1,155,Secondary,Secondary,Clerical/service,High-skilled,140.5,1,0,0,1,0,0,18,0,7.6,2.6,0.32,Graduate
1,17,1,9238,1,1,137,Basic,Basic,Clerical/service,'Manual skilled',131.1,1,0,0,1,0,1,18,0,8.9,1.4,3.51,Graduate
4,39,2,9556,1,19,133.1,Basic,Basic,Clerical/service,'Manual skilled',123,0,0,0,1,0,1,37,0,10.8,1.4,1.74,Graduate
2,39,2,9254,1,19,133.1,Basic,Basic,Low-skilled,Clerical/service,123.5,0,0,0,1,1,0,39,0,12.4,0.5,1.79,Graduate
1,44,1,8014,0,39,130,Secondary,Basic,Low-skilled,Low-skilled,133.4,0,0,0,1,0,1,21,0,12.4,0.5,1.79,Graduate
1,1,1,171,1,1,151,Basic,Basic,Low-skilled,'Manual skilled',147.5,1,0,0,1,0,0,18,0,7.6,2.6,0.32,Graduate
2,39,1,9991,0,1,110,Basic,Basic,Low-skilled,Clerical/service,160,0,0,0,1,0,0,44,0,15.5,2.8,-4.06,Graduate
1,18,1,9147,1,1,160,Basic,Basic,Clerical/service,'Manual skilled',137.6,1,0,0,1,0,1,19,0,10.8,1.4,1.74,Graduate
1,39,1,9254,1,1,160,Higher,Secondary,'Manual skilled','Manual skilled',116.3,1,0,0,1,0,0,24,0,9.4,-0.8,-3.12,Graduate
1,1,6,9500,1,1,146,Higher,Basic,High-skilled,Low-skilled,130.3,1,0,0,1,1,0,18,0,9.4,-0.8,-3.12,Graduate
1,1,1,9147,1,1,150,Secondary,Basic,Clerical/service,Clerical/service,137.8,1,0,0,1,1,1,19,0,16.2,0.3,-0.92,Graduate
1,1,1,9773,1,1,111,Basic,Basic,Low-skilled,Low-skilled,110,1,0,0,1,0,0,18,0,11.1,0.6,2.02,Graduate
2,1,1,9500,1,1,156,Secondary,Secondary,Low-skilled,Other/unknown,135.5,0,0,0,1,0,0,18,0,12.7,3.7,-1.7,Graduate
1,1,1,171,1,1,110,Higher,Higher,High-skilled,High-skilled,117,1,0,0,1,1,0,21,0,9.4,-0.8,-3.12,Graduate
1,1,1,9773,1,1,135,Basic,Basic,Low-skilled,'Manual skilled',122.1,1,0,0,1,1,0,18,0,12.7,3.7,-1.7,Graduate
1,53,1,9085,1,42,170,Secondary,Basic,Clerical/service,'Manual skilled',170,0,0,0,1,0,0,20,0,8.9,1.4,3.51,Graduate
1,1,1,9130,1,1,133,Higher,Secondary,High-skilled,Clerical/service,126,0,0,0,1,1,0,18,0,7.6,2.6,0.32,Graduate
1,1,5,9500,1,1,132,Basic,Basic,'Manual skilled','Manual skilled',120.3,1,0,0,1,0,1,18,0,12.4,0.5,1.79,Graduate
1,44,1,9003,1,39,120,Higher,Secondary,High-skilled,'Manual skilled',120,0,0,0,1,1,0,21,0,8.9,1.4,3.51,Graduate
2,57,1,9991,0,1,133.1,Basic,Basic,Clerical/service,'Manual skilled',100,0,0,0,1,0,0,37,1,8.9,1.4,3.51,Graduate
1,44,1,9085,1,39,140,Secondary,Basic,High-skilled,High-skilled,140,1,0,0,1,0,0,21,0,12.4,0.5,1.79,Graduate
1,17,4,9500,1,1,138,Higher,Secondary,High-skilled,Clerical/service,134.5,1,0,0,1,0,0,18,0,13.9,-0.3,0.79,Graduate
1,43,1,9991,0,3,120,Basic,Basic,Low-skilled,Low-skilled,120,0,0,0,1,0,0,37,0,12.7,3.7,-1.7,Graduate
1,17,1,9085,1,1,133.1,Basic,Basic,Low-skilled,Low-skilled,99,1,0,0,1,0,1,23,0,8.9,1.4,3.51,Graduate
1,43,1,9670,1,1,130,Unknown,Unknown,Other/unknown,Other/unknown,114.8,0,0,0,1,1,0,25,0,7.6,2.6,0.32,Graduate
4,39,1,9500,1,1,140,Basic,Basic,'Manual skilled','Manual skilled',101.5,1,0,0,1,0,0,24,0,10.8,1.4,1.74,Graduate
1,1,1,9500,1,1,146,Secondary,Basic,Low-skilled,Low-skilled,129.3,0,0,0,1,0,0,18,0,12.7,3.7,-1.7,Graduate
1,17,3,9238,1,1,122,Basic,Basic,'Manual skilled','Manual skilled',117.5,1,0,0,1,0,0,19,0,8.9,1.4,3.51,Graduate
1,1,1,8014,0,1,133,Basic,Basic,Clerical/service,High-skilled,135.5,0,0,0,1,0,0,34,0,10.8,1.4,1.74,Graduate
1,17,6,9500,1,1,126,Basic,Basic,High-skilled,Low-skilled,119.4,1,0,0,1,0,1,19,0,16.2,0.3,-0.92,Graduate
2,39,1,9254,1,1,130,Basic,Basic,Low-skilled,Low-skilled,125,0,0,0,1,0,0,41,0,8.9,1.4,3.51,Graduate
1,43,1,8014,0,12,114,Unknown,Unknown,Other/unknown,Other/unknown,110,0,0,0,1,0,0,29,0,7.6,2.6,0.32,Graduate
2,39,1,9991,0,1,170,Basic,Basic,Low-skilled,High-skilled,151.1,0,0,0,1,1,0,48,0,16.2,0.3,-0.92,Graduate
1,1,3,9085,1,1,140,Secondary,Basic,Other/unknown,Other/unknown,135.8,1,0,0,1,0,0,18,0,7.6,2.6,0.32,Graduate
1,1,1,9238,1,1,135,Basic,Basic,High-skilled,Low-skilled,136.1,1,0,0,1,0,1,18,0,12.4,0.5,1.79,Graduate
1,1,4,9238,1,1,123,Basic,Secondary,Clerical/service,Other/unknown,129,1,0,0,1,0,0,19,0,10.8,1.4,1.74,Graduate
1,17,2,9070,1,1,136,Basic,Basic,Clerical/service,'Manual skilled',140.9,1,0,0,1,0,0,19,0,9.4,-0.8,-3.12,Graduate
1,1,2,9500,1,1,141,Basic,Basic,Low-skilled,'Manual skilled',130.2,1,0,0,1,0,0,21,0,15.5,2.8,-4.06,Graduate
1,1,3,9773,1,1,138,Higher,Secondary,High-skilled,High-skilled,135.9,1,0,0,1,0,0,18,0,13.9,-0.3,0.79,Graduate
1,39,1,9500,1,19,133.1,Basic,Basic,Low-skilled,'Manual skilled',106,1,0,0,1,1,0,24,0,7.6,2.6,0.32,Graduate
2,39,1,8014,0,1,150,Basic,Basic,High-skilled,'Manual skilled',134.5,0,0,0,1,0,0,28,0,16.2,0.3,-0.92,Graduate
1,18,1,9003,1,1,133.1,Secondary,Basic,Low-skilled,'Manual skilled',101,0,0,0,1,1,0,21,0,15.5,2.8,-4.06,Graduate
1,17,6,9773,1,1,138,Secondary,Secondary,Clerical/service,High-skilled,140.5,1,0,0,1,0,0,19,0,7.6,2.6,0.32,Graduate
1,18,6,9500,1,1,126,Basic,Basic,Clerical/service,Clerical/service,122.8,1,0,0,1,0,0,18,0,9.4,-0.8,-3.12,Graduate
1,1,1,9500,1,1,153,Basic,Basic,'Manual skilled','Manual skilled',147.9,0,0,0,1,0,1,18,0,12.4,0.5,1.79,Graduate
1,17,2,9773,1,1,125,Secondary,Secondary,Clerical/service,'Manual skilled',115.6,1,0,0,1,0,0,19,0,12.4,0.5,1.79,Graduate
1,1,2,9773,1,1,132,Secondary,Higher,Low-skilled,High-skilled,128.2,1,0,0,1,0,1,19,0,9.4,-0.8,-3.12,Graduate
1,1,1,9238,1,1,143,Basic,Secondary,Low-skilled,Low-skilled,144.4,1,0,0,1,0,0,20,0,10.8,1.4,1.74,Graduate
1,1,6,9238,1,1,125,Basic,Secondary,'Manual skilled',Clerical/service,118.4,1,0,0,1,0,1,19,0,11.1,0.6,2.02,Graduate
1,1,1,9500,1,1,154,Basic,Basic,High-skilled,High-skilled,142,0,0,0,1,1,0,19,0,12.7,3.7,-1.7,Graduate
1,1,1,9130,1,1,160,Higher,Higher,High-skilled,High-skilled,155.1,1,0,0,1,0,0,20,0,12.7,3.7,-1.7,Graduate
1,17,1,9003,1,1,131,Basic,Secondary,Low-skilled,High-skilled,134.5,1,0,0,1,0,1,19,0,12.4,0.5,1.79,Graduate
2,39,2,8014,0,19,100,Basic,Basic,Clerical/service,'Manual skilled',100,0,0,1,1,0,0,37,0,7.6,2.6,0.32,Graduate
2,1,1,9991,0,1,144,Basic,Basic,Low-skilled,Low-skilled,151.4,0,0,0,1,0,0,28,0,7.6,2.6,0.32,Graduate
1,1,1,9147,1,1,122,Basic,Basic,Low-skilled,'Manual skilled',120.6,1,0,0,1,0,1,19,0,9.4,-0.8,-3.12,Graduate
1,17,1,9147,1,1,131,Secondary,Basic,High-skilled,'Manual skilled',120.2,0,0,0,1,0,0,19,0,12.7,3.7,-1.7,Graduate
1,1,1,9254,1,1,117,Secondary,Secondary,Clerical/service,Clerical/service,116.3,1,0,0,1,1,1,21,0,10.8,1.4,1.74,Graduate
1,1,1,9500,1,1,131,Secondary,Basic,Low-skilled,Low-skilled,127,0,0,0,1,1,1,19,0,12.7,3.7,-1.7,Graduate
1,43,6,9238,1,1,129,Unknown,Unknown,Other/unknown,Other/unknown,125.2,0,0,0,1,0,1,23,0,9.4,-0.8,-3.12,Graduate
1,1,5,9500,1,1,144,Basic,Basic,Clerical/service,'Manual skilled',141.3,1,0,0,1,0,1,18,0,9.4,-0.8,-3.12,Graduate
1,44,1,9085,1,39,160,Secondary,Secondary,Clerical/service,Clerical/service,160,0,0,0,1,1,0,21,0,9.4,-0.8,-3.12,Graduate
2,39,1,9500,1,3,130,Secondary,Secondary,Clerical/service,'Manual skilled',126,0,0,0,1,1,0,32,0,13.9,-0.3,0.79,Graduate
1,1,1,9773,1,1,130,Basic,Basic,Low-skilled,'Manual skilled',133.9,0,0,0,1,1,1,19,0,10.8,1.4,1.74,Graduate
1,1,1,9238,1,1,133.1,Basic,Basic,Clerical/service,Clerical/service,108,0,0,0,1,0,1,20,0,16.2,0.3,-0.92,Graduate
1,1,1,9070,1,1,143,Basic,Basic,Clerical/service,Low-skilled,134.3,1,1,0,1,0,0,19,0,8.9,1.4,3.51,Graduate
1,44,1,9085,1,39,160,Basic,Basic,Low-skilled,Other/unknown,160,1,0,0,1,0,0,22,0,16.2,0.3,-0.92,Graduate
1,17,1,9670,1,1,118,Secondary,Basic,Clerical/service,'Manual skilled',118.7,0,0,0,1,1,1,19,0,12.4,0.5,1.79,Graduate
1,1,1,9500,1,1,165,Basic,Basic,Clerical/service,Clerical/service,142.3,0,0,0,1,0,1,18,0,12.7,3.7,-1.7,Graduate
1,44,1,9238,1,39,140,Secondary,Secondary,Low-skilled,High-skilled,135.7,1,0,0,1,0,0,20,0,12.4,0.5,1.79,Graduate
1,1,1,9238,1,1,131,Basic,Secondary,Low-skilled,Low-skilled,135.9,1,0,0,1,0,0,18,0,9.4,-0.8,-3.12,Graduate
1,1,1,9085,1,1,125,Secondary,Basic,Clerical/service,Low-skilled,114.5,1,0,0,1,0,0,24,0,12.7,3.7,-1.7,Graduate
1,17,3,9670,1,1,122,Secondary,Basic,High-skilled,High-skilled,114.3,1,0,0,1,0,0,18,0,11.1,0.6,2.02,Graduate
1,1,2,9500,1,1,135,Basic,Basic,Low-skilled,Other/unknown,122.9,1,0,0,1,0,0,18,0,15.5,2.8,-4.06,Graduate
1,17,1,9500,1,1,147,Secondary,Secondary,Clerical/service,Clerical/service,134.9,0,1,0,1,0,0,18,0,16.2,0.3,-0.92,Graduate
1,17,1,9238,1,1,128,Basic,Basic,Clerical/service,Clerical/service,116.5,0,0,0,1,0,1,18,0,12.4,0.5,1.79,Graduate
1,1,3,9085,1,1,133,Secondary,Basic,Low-skilled,Other/unknown,128.2,0,0,0,1,0,0,21,0,7.6,2.6,0.32,Graduate
1,17,1,9085,1,1,134,Basic,Basic,High-skilled,High-skilled,120.4,1,0,0,1,1,0,18,0,16.2,0.3,-0.92,Graduate
1,1,6,9500,1,1,140,Basic,Basic,Clerical/service,'Manual skilled',128.5,1,0,0,1,0,1,18,0,9.4,-0.8,-3.12,Graduate
1,1,1,9254,1,1,132,Basic,Basic,Low-skilled,'Manual skilled',120.1,0,0,0,1,0,1,20,0,13.9,-0.3,0.79,Graduate
1,1,1,9500,1,1,131,Secondary,Secondary,Low-skilled,Low-skilled,122,0,0,0,1,0,0,19,0,12.7,3.7,-1.7,Graduate
1,43,2,9500,1,1,120,Higher,Higher,High-skilled,High-skilled,112.7,0,0,0,1,0,0,21,0,10.8,1.4,1.74,Graduate
1,1,2,9500,1,1,136,Basic,Basic,Low-skilled,Low-skilled,140,1,0,0,1,0,0,20,0,7.6,2.6,0.32,Graduate
1,17,2,9254,1,1,121,Basic,Basic,'Manual skilled','Manual skilled',116.1,1,0,0,1,1,0,19,0,15.5,2.8,-4.06,Graduate
1,1,5,9254,1,1,131,Basic,Basic,Low-skilled,Low-skilled,123.7,0,0,0,1,0,1,19,0,8.9,1.4,3.51,Graduate
1,1,1,9773,1,1,138,Secondary,Basic,Clerical/service,Clerical/service,131.7,1,0,0,1,1,0,18,0,15.5,2.8,-4.06,Graduate
1,1,3,9500,1,1,149,Secondary,Secondary,Clerical/service,Clerical/service,129.3,1,0,0,1,1,0,18,0,12.7,3.7,-1.7,Graduate
1,1,1,9070,1,1,132,Secondary,Secondary,Low-skilled,Low-skilled,133.8,1,0,0,1,0,1,20,0,16.2,0.3,-0.92,Graduate
1,1,1,9147,1,1,180,Basic,Basic,'Manual skilled',Clerical/service,153.8,1,0,0,1,0,1,20,0,9.4,-0.8,-3.12,Graduate
1,1,1,9238,1,1,138,Secondary,Basic,Clerical/service,'Manual skilled',123,1,0,1,0,0,0,18,0,8.9,1.4,3.51,'Not on time'
1,18,4,9556,1,1,127,Secondary,Basic,Clerical/service,'Manual skilled',121.8,1,0,0,1,0,0,20,0,12.7,3.7,-1.7,'Not on time'
1,1,1,9147,1,1,143,Secondary,Secondary,Clerical/service,'Manual skilled',138.8,0,0,0,0,1,0,18,0,8.9,1.4,3.51,'Not on time'
1,1,5,9773,1,1,126,Higher,Higher,High-skilled,High-skilled,121.1,0,0,1,1,0,0,18,0,12.7,3.7,-1.7,'Not on time'
1,1,1,9773,1,1,127,Secondary,Basic,'Manual skilled','Manual skilled',121.8,1,0,0,1,0,1,20,0,9.4,-0.8,-3.12,'Not on time'
1,17,3,171,1,1,133,Secondary,Basic,Clerical/service,'Manual skilled',126,1,0,0,1,1,1,19,0,10.8,1.4,1.74,'Not on time'
1,39,1,9254,1,1,160,Basic,Basic,'Manual skilled',Other/unknown,100,0,0,0,1,1,0,26,0,12.7,3.7,-1.7,'Not on time'
1,18,4,9254,1,1,106,Basic,Basic,'Manual skilled','Manual skilled',106,1,0,0,1,1,1,21,0,9.4,-0.8,-3.12,'Not on time'
1,1,6,9147,1,1,143,Basic,Basic,Low-skilled,Low-skilled,128.7,1,0,0,1,1,0,23,0,11.1,0.6,2.02,'Not on time'
1,15,1,9119,1,1,130,Basic,Higher,Low-skilled,High-skilled,137,1,0,0,1,1,0,19,1,13.9,-0.3,0.79,'Not on time'
1,18,1,9853,1,1,123,Basic,Basic,Low-skilled,'Manual skilled',117.4,1,0,0,1,0,0,19,0,11.1,0.6,2.02,'Not on time'
1,17,2,9147,1,1,123,Secondary,Basic,Clerical/service,'Manual skilled',115.3,1,0,0,1,0,1,18,0,8.9,1.4,3.51,'Not on time'
1,17,1,9254,1,1,133.1,Secondary,Secondary,Clerical/service,Clerical/service,131,1,0,0,1,0,0,21,0,9.4,-0.8,-3.12,'Not on time'
1,17,6,9500,1,1,148,Secondary,Basic,High-skilled,High-skilled,131.7,1,0,0,1,0,0,19,0,13.9,-0.3,0.79,'Not on time'
1,17,1,9254,1,1,113,Secondary,Basic,Low-skilled,Other/unknown,117.2,1,0,0,1,0,0,20,0,7.6,2.6,0.32,'Not on time'
1,1,1,9670,1,1,128,Basic,Secondary,Clerical/service,High-skilled,118.2,0,0,0,1,0,0,19,0,10.8,1.4,1.74,'Not on time'
1,17,2,9254,1,1,125,Basic,Basic,Low-skilled,'Manual skilled',122.6,1,0,1,0,0,0,20,0,11.1,0.6,2.02,'Not on time'
1,44,1,9991,0,39,140,Basic,Basic,Low-skilled,'Manual skilled',140,0,0,0,1,0,1,26,0,9.4,-0.8,-3.12,'Not on time'
1,43,1,9238,1,1,143,Secondary,Basic,Clerical/service,Low-skilled,126.6,0,0,1,0,0,0,21,0,9.4,-0.8,-3.12,'Not on time'
1,39,1,9991,0,40,130,Basic,Secondary,High-skilled,Clerical/service,152,1,0,0,1,0,0,27,0,8.9,1.4,3.51,'Not on time'
1,39,1,9556,1,40,130,Secondary,Secondary,Clerical/service,Clerical/service,145,0,0,0,1,0,0,25,0,15.5,2.8,-4.06,'Not on time'
1,39,2,9670,1,1,140,Unknown,Unknown,Other/unknown,Other/unknown,97,1,0,0,1,0,0,28,0,7.6,2.6,0.32,'Not on time'
1,1,3,9500,1,1,125,Higher,Secondary,Clerical/service,Clerical/service,119.4,1,0,0,1,0,0,19,0,12.4,0.5,1.79,'Not on time'
1,1,3,9773,1,1,131,Basic,Basic,'Manual skilled','Manual skilled',127.2,1,0,0,1,0,1,18,0,8.9,1.4,3.51,'Not on time'
1,39,1,8014,0,1,100,Basic,Basic,Other/unknown,Other/unknown,100,0,0,0,1,0,0,34,0,12.7,3.7,-1.7,'Not on time'
1,1,1,9500,1,1,143,Basic,Basic,Clerical/service,'Manual skilled',142.3,0,0,0,1,0,1,18,0,12.4,0.5,1.79,'Not on time'
1,17,2,9238,1,1,143,Secondary,Basic,Clerical/service,High-skilled,128,1,0,0,1,0,0,19,0,9.4,-0.8,-3.12,'Not on time'
1,51,1,9147,1,1,135,Secondary,Secondary,Clerical/service,Clerical/service,118.5,0,0,0,1,0,0,25,0,11.1,0.6,2.02,'Not on time'
1,1,1,9085,1,1,135,Basic,Basic,Low-skilled,Clerical/service,136.8,1,0,0,1,0,0,18,0,9.4,-0.8,-3.12,'Not on time'
1,42,1,9147,1,1,130,Basic,Basic,Low-skilled,High-skilled,130,1,0,0,1,0,0,26,0,9.4,-0.8,-3.12,'Not on time'
1,1,1,9254,1,1,127,Basic,Basic,Clerical/service,'Manual skilled',120.7,0,0,1,0,0,0,22,0,10.8,1.4,1.74,'Not on time'
1,17,4,9147,1,1,112,Basic,Basic,Low-skilled,Other/unknown,112,1,0,0,1,0,0,20,0,16.2,0.3,-0.92,'Not on time'
2,39,1,9085,1,19,133.1,Basic,Basic,Clerical/service,'Manual skilled',128.2,0,0,0,1,0,0,31,0,12.7,3.7,-1.7,'Not on time'
4,39,1,9500,1,19,133.1,Basic,Basic,Clerical/service,'Manual skilled',140,0,0,0,1,0,1,26,0,16.2,0.3,-0.92,'Not on time'
1,39,1,9500,1,1,150,Secondary,Basic,Clerical/service,High-skilled,140,0,1,0,1,0,0,26,0,16.2,0.3,-0.92,'Not on time'
1,17,4,9070,1,1,125,Secondary,Higher,High-skilled,High-skilled,128.9,0,0,0,1,0,1,18,0,8.9,1.4,3.51,'Not on time'
1,1,1,9853,1,1,133.1,Basic,Basic,Low-skilled,Low-skilled,97,1,0,0,1,0,0,23,0,12.7,3.7,-1.7,'Not on time'
1,1,1,9500,1,1,141,Secondary,Secondary,Other/unknown,High-skilled,127.8,0,0,0,1,0,1,19,0,7.6,2.6,0.32,'Not on time'
1,1,2,9500,1,1,140,Secondary,Basic,'Manual skilled','Manual skilled',129.9,1,0,0,1,0,0,18,0,15.5,2.8,-4.06,'Not on time'
1,17,1,9238,1,1,148,Secondary,Secondary,Clerical/service,Low-skilled,129.8,0,0,0,1,0,0,20,0,15.5,2.8,-4.06,'Not on time'
1,1,2,9556,1,1,133.1,Basic,Basic,Low-skilled,Low-skilled,104.5,1,0,0,1,0,0,21,0,12.4,0.5,1.79,'Not on time'
1,43,2,9670,1,1,125,Basic,Basic,Clerical/service,High-skilled,106.6,1,0,0,1,0,0,20,0,10.8,1.4,1.74,'Not on time'
1,39,1,9556,1,19,100,Basic,Basic,Low-skilled,Low-skilled,120,0,0,0,1,0,0,29,0,12.7,3.7,-1.7,'Not on time'
1,39,1,33,1,1,140,Higher,Secondary,High-skilled,Clerical/service,152.8,0,0,0,1,0,0,26,0,16.2,0.3,-0.92,'Not on time'
1,39,1,9991,0,1,100,Basic,Basic,Low-skilled,High-skilled,121.9,0,0,0,0,0,0,40,0,12.7,3.7,-1.7,'Not on time'
1,17,2,9853,1,1,118,Basic,Basic,Low-skilled,Low-skilled,112.1,1,0,0,1,0,0,23,0,7.6,2.6,0.32,'Not on time'
1,1,1,9130,1,1,154,Higher,Higher,High-skilled,High-skilled,137.2,1,0,1,1,1,0,18,0,16.2,0.3,-0.92,'Not on time'
1,18,3,9773,1,1,128,Basic,Secondary,Low-skilled,Low-skilled,122.1,1,0,0,1,1,0,19,0,10.8,1.4,1.74,'Not on time'
1,1,1,9670,1,1,133.1,Basic,Basic,Clerical/service,'Manual skilled',138,0,0,1,1,1,0,22,0,11.1,0.6,2.02,'Not on time'
1,17,3,9119,1,1,117,Secondary,Higher,High-skilled,High-skilled,119.8,1,0,0,1,1,0,19,0,11.1,0.6,2.02,'Not on time'
1,1,1,9130,1,1,132,Secondary,Secondary,High-skilled,High-skilled,143.9,1,0,0,1,1,0,20,0,9.4,-0.8,-3.12,'Not on time'
1,17,6,9119,1,1,111,Basic,Higher,Clerical/service,Other/unknown,106.5,1,0,0,1,1,0,19,0,12.4,0.5,1.79,'Not on time'
1,17,1,9670,1,1,141,Secondary,Basic,'Manual skilled','Manual skilled',128.8,1,0,0,1,0,0,19,0,8.9,1.4,3.51,'Not on time'
1,17,1,9853,1,1,133.1,Basic,Secondary,'Manual skilled',Other/unknown,111.5,0,0,0,0,0,1,20,0,7.6,2.6,0.32,'Not on time'
1,17,1,9130,1,1,123,Basic,Higher,High-skilled,High-skilled,121.6,1,0,1,1,0,1,19,0,7.6,2.6,0.32,'Not on time'
1,17,2,9147,1,1,116,Secondary,Basic,Clerical/service,High-skilled,114.6,1,0,0,1,0,0,19,0,13.9,-0.3,0.79,'Not on time'
1,39,1,9991,0,1,120,Basic,Secondary,Low-skilled,Clerical/service,123.2,0,0,0,1,0,0,27,0,10.8,1.4,1.74,'Not on time'
1,1,3,9500,1,1,143,Basic,Basic,'Manual skilled','Manual skilled',133.8,1,0,0,1,0,0,18,0,9.4,-0.8,-3.12,'Not on time'
1,1,4,9238,1,1,125,Basic,Basic,Low-skilled,'Manual skilled',114.9,1,0,1,1,0,1,19,0,8.9,1.4,3.51,'Not on time'
1,17,5,9500,1,1,148,Secondary,Basic,Clerical/service,'Manual skilled',130.2,1,0,0,1,0,0,19,0,12.4,0.5,1.79,'Not on time'
1,18,4,9085,1,1,170,Secondary,Secondary,Clerical/service,Clerical/service,166.6,0,0,1,0,0,1,20,0,12.7,3.7,-1.7,'Not on time'
1,1,1,9254,1,1,140,Basic,Basic,Low-skilled,High-skilled,130,0,0,0,1,1,0,21,0,12.7,3.7,-1.7,'Not on time'
1,44,1,9085,1,39,130,Higher,Higher,'Manual skilled','Manual skilled',130,0,0,0,0,1,0,20,0,12.4,0.5,1.79,'Not on time'
1,39,1,8014,0,1,133.1,Basic,Basic,Low-skilled,'Manual skilled',96,0,0,1,0,1,0,50,0,12.4,0.5,1.79,'Not on time'
2,42,1,9991,0,6,123,Basic,Basic,Low-skilled,Low-skilled,123,0,0,0,1,1,0,37,0,9.4,-0.8,-3.12,'Not on time'
1,7,3,9130,1,3,130,Basic,Basic,Other/unknown,Other/unknown,130,0,0,0,0,1,0,41,0,10.8,1.4,1.74,'Not on time'
1,43,1,9773,1,1,140,Higher,Basic,High-skilled,'Manual skilled',116.9,0,0,0,1,1,0,32,0,13.9,-0.3,0.79,'Not on time'
1,17,3,9500,1,1,142,Higher,Higher,High-skilled,High-skilled,132.9,1,0,0,1,1,0,18,0,12.4,0.5,1.79,'Not on time'
2,39,1,9991,0,19,133.1,Basic,Basic,'Manual skilled',Low-skilled,137.2,0,0,1,0,0,0,32,0,10.8,1.4,1.74,'Not on time'
1,15,1,9147,1,1,133.1,Secondary,Higher,Low-skilled,High-skilled,100,0,0,1,1,1,0,40,1,11.1,0.6,2.02,'Not on time'
1,1,1,9085,1,1,126,Higher,Secondary,High-skilled,'Manual skilled',123.9,1,0,0,1,0,0,19,0,12.4,0.5,1.79,'Not on time'
1,1,3,9500,1,1,154,Higher,Higher,High-skilled,High-skilled,129,1,0,0,1,0,0,18,0,9.4,-0.8,-3.12,'Not on time'
1,1,2,9238,1,1,117,Basic,Secondary,Low-skilled,'Manual skilled',110,1,0,1,0,0,0,18,0,11.1,0.6,2.02,'Not on time'
1,1,1,9238,1,1,115,Secondary,Secondary,Low-skilled,Clerical/service,109.1,1,0,1,0,0,1,22,0,12.4,0.5,1.79,'Not on time'
1,17,1,9853,1,1,127,Secondary,Secondary,Clerical/service,'Manual skilled',121.4,1,0,0,1,0,0,18,0,11.1,0.6,2.02,'Not on time'
2,39,1,9130,1,1,130,Basic,Basic,Low-skilled,'Manual skilled',160,0,0,0,1,1,0,31,0,16.2,0.3,-0.92,'Not on time'
1,44,1,9130,1,39,150,Higher,Secondary,High-skilled,'Manual skilled',150,0,0,0,0,1,0,22,0,12.7,3.7,-1.7,'Not on time'
1,1,1,9085,1,1,122,Secondary,Secondary,High-skilled,Clerical/service,113.3,1,0,0,1,0,0,18,0,10.8,1.4,1.74,'Not on time'
1,39,1,9003,1,12,133.1,Basic,Secondary,Low-skilled,Other/unknown,130,0,0,0,1,1,0,28,0,11.1,0.6,2.02,'Not on time'
1,44,1,9070,1,39,120,Secondary,Basic,Clerical/service,'Manual skilled',119.8,0,0,0,1,1,0,21,0,12.4,0.5,1.79,'Not on time'
2,39,1,9119,1,1,120,Unknown,Unknown,Other/unknown,Other/unknown,140,1,0,0,1,1,0,33,0,9.4,-0.8,-3.12,'Not on time'
1,39,1,9003,1,1,110,Basic,Basic,Low-skilled,'Manual skilled',120,0,0,1,0,1,0,31,0,16.2,0.3,-0.92,'Not on time'
1,1,1,9254,1,1,112,Basic,Basic,Low-skilled,Clerical/service,113.8,1,0,0,1,0,0,21,0,7.6,2.6,0.32,'Not on time'
1,1,1,171,1,1,150,Basic,Basic,'Manual skilled',Other/unknown,134.6,0,0,0,1,0,0,20,0,15.5,2.8,-4.06,'Not on time'
1,17,6,9238,1,1,131,Secondary,Higher,Clerical/service,High-skilled,131.7,1,0,0,1,0,0,18,0,9.4,-0.8,-3.12,'Not on time'
1,39,1,9085,1,1,140,Basic,Basic,Low-skilled,'Manual skilled',129.3,1,0,1,1,0,0,28,0,8.9,1.4,3.51,'Not on time'
1,39,1,9500,1,19,133.1,Basic,Basic,Low-skilled,Low-skilled,114.8,0,0,0,1,0,0,28,0,13.9,-0.3,0.79,'Not on time'
1,7,1,9085,1,3,130,Secondary,Basic,Low-skilled,Other/unknown,130,0,0,0,1,0,0,34,0,15.5,2.8,-4.06,'Not on time'
1,42,1,9119,1,1,120,Higher,Secondary,High-skilled,Low-skilled,108.2,1,0,0,1,1,0,26,0,7.6,2.6,0.32,'Not on time'
2,39,1,9991,0,1,148,Basic,Basic,Low-skilled,Clerical/service,130.9,0,0,0,0,1,0,28,0,12.4,0.5,1.79,'Not on time'
2,39,2,9119,1,19,133.1,Basic,Basic,'Manual skilled','Manual skilled',118,0,0,0,0,1,0,33,0,9.4,-0.8,-3.12,'Not on time'
2,39,1,9991,0,1,130,Basic,Basic,Low-skilled,High-skilled,145.6,0,0,0,1,1,0,34,0,13.9,-0.3,0.79,'Not on time'
1,1,1,9773,1,1,143,Secondary,Higher,High-skilled,High-skilled,149,1,0,0,1,0,0,18,0,11.1,0.6,2.02,'Not on time'
1,1,5,9670,1,1,116,Basic,Basic,Low-skilled,Low-skilled,119.5,1,0,0,0,0,0,18,0,8.9,1.4,3.51,'Not on time'
1,17,3,9085,1,1,128,Secondary,Basic,Clerical/service,Other/unknown,124.2,0,0,0,0,0,0,21,0,7.6,2.6,0.32,'Not on time'
1,1,1,9853,1,1,124,Higher,Secondary,High-skilled,Clerical/service,121.6,0,0,0,1,0,0,18,0,15.5,2.8,-4.06,'Not on time'
1,39,1,9670,1,12,133.1,Secondary,Basic,High-skilled,Clerical/service,100,1,0,1,0,0,0,25,0,9.4,-0.8,-3.12,'Not on time'
1,1,1,9853,1,1,145,Basic,Basic,Clerical/service,Clerical/service,142.2,0,0,0,1,0,0,19,0,9.4,-0.8,-3.12,'Not on time'
1,17,2,9130,1,1,127,Higher,Secondary,High-skilled,High-skilled,116.5,0,0,0,1,0,0,19,0,15.5,2.8,-4.06,'Not on time'
1,1,1,9853,1,1,125,Basic,Basic,Low-skilled,Low-skilled,114.9,1,0,1,0,0,0,21,0,15.5,2.8,-4.06,'Not on time'
1,43,1,9147,1,1,123,Higher,Basic,Low-skilled,Low-skilled,113.2,0,0,0,1,0,0,21,0,7.6,2.6,0.32,'Not on time'
1,39,1,9991,0,1,120,Basic,Basic,High-skilled,High-skilled,140,0,0,0,1,0,0,25,0,15.5,2.8,-4.06,'Not on time'
1,17,1,9254,1,1,122,Basic,Basic,Clerical/service,'Manual skilled',114.3,0,0,0,0,0,0,20,0,15.5,2.8,-4.06,'Not on time'
1,16,2,9147,1,1,132,Basic,Basic,Low-skilled,Low-skilled,122.6,1,0,0,1,0,1,20,0,10.8,1.4,1.74,'Not on time'
1,1,1,9500,1,1,138,Basic,Secondary,Low-skilled,Clerical/service,127.5,1,0,0,1,0,0,19,0,16.2,0.3,-0.92,'Not on time'
2,39,2,9147,1,3,130,Higher,Basic,Low-skilled,Low-skilled,103.4,0,0,0,1,0,0,30,0,12.7,3.7,-1.7,'Not on time'
4,39,1,9500,1,1,133.1,Basic,Basic,Low-skilled,Low-skilled,130,0,0,1,1,0,0,38,0,16.2,0.3,-0.92,'Not on time'
1,17,1,9147,1,1,140,Basic,Basic,Low-skilled,'Manual skilled',132.3,1,0,0,1,0,0,20,0,7.6,2.6,0.32,'Not on time'
2,39,2,9147,1,1,150,Basic,Basic,Low-skilled,'Manual skilled',101,0,0,1,0,0,0,29,0,10.8,1.4,1.74,'Not on time'
1,43,1,9556,1,1,140,Basic,Basic,Low-skilled,Low-skilled,128,1,0,0,0,0,0,32,0,10.8,1.4,1.74,'Not on time'
1,53,1,9085,1,42,140,Secondary,Secondary,Clerical/service,High-skilled,140,1,0,1,1,0,0,21,0,8.9,1.4,3.51,'Not on time'
2,39,1,9130,1,1,150,Basic,Basic,Clerical/service,Clerical/service,130,0,0,0,0,1,0,31,0,9.4,-0.8,-3.12,'Not on time'
1,53,1,9670,1,42,140,Basic,Basic,High-skilled,'Manual skilled',140,1,0,1,1,0,0,21,0,8.9,1.4,3.51,'Not on time'
1,1,2,9773,1,1,121,Basic,Basic,Low-skilled,Low-skilled,122.8,0,0,0,1,1,0,19,0,12.4,0.5,1.79,'Not on time'
2,51,1,9853,1,1,130,Basic,Basic,'Manual skilled','Manual skilled',120.3,0,0,0,1,0,0,35,0,8.9,1.4,3.51,'Not on time'
1,1,2,9070,1,1,129,Secondary,Secondary,Clerical/service,Low-skilled,132.9,1,0,0,1,1,1,20,0,7.6,2.6,0.32,'Not on time'
1,39,2,9670,1,1,150,Unknown,Unknown,Other/unknown,Other/unknown,107,1,0,0,1,1,0,26,0,7.6,2.6,0.32,'Not on time'
1,1,4,9500,1,1,144,Higher,Secondary,High-skilled,High-skilled,129,1,0,0,1,0,0,18,0,16.2,0.3,-0.92,'Not on time'
1,1,2,9853,1,1,123,Basic,Secondary,Low-skilled,Other/unknown,115.3,1,0,0,1,0,0,20,0,11.1,0.6,2.02,'Not on time'
1,1,1,9130,1,1,144,Higher,Secondary,High-skilled,High-skilled,137.7,0,0,0,0,0,0,23,0,10.8,1.4,1.74,'Not on time'
1,43,1,9130,1,1,120,Secondary,Basic,Low-skilled,Low-skilled,120,1,0,0,1,0,0,21,0,15.5,2.8,-4.06,'Not on time'
1,1,1,9238,1,1,108,Secondary,Basic,Clerical/service,'Manual skilled',105.9,0,0,0,1,0,1,20,0,11.1,0.6,2.02,'Not on time'
1,42,1,9119,1,1,120,Basic,Basic,Low-skilled,Low-skilled,113.8,0,0,0,0,1,0,27,0,15.5,2.8,-4.06,'Not on time'
1,1,1,9147,1,1,140,Basic,Basic,'Manual skilled',High-skilled,120,1,0,0,1,1,0,21,0,12.7,3.7,-1.7,'Not on time'
1,51,1,9238,1,1,141,Secondary,Secondary,Clerical/service,Low-skilled,125,0,0,0,1,1,0,22,0,11.1,0.6,2.02,'Not on time'
1,1,2,9085,1,1,118,Secondary,Basic,High-skilled,High-skilled,112.4,1,0,0,1,1,0,21,0,10.8,1.4,1.74,'Not on time'
1,15,1,9119,1,1,133.1,Secondary,Higher,Clerical/service,'Manual skilled',100,0,0,1,1,1,0,21,1,11.1,0.6,2.02,'Not on time'
1,17,5,9085,1,1,130,Basic,Basic,Other/unknown,'Manual skilled',115.8,0,0,0,0,0,0,18,0,12.7,3.7,-1.7,'Not on time'
1,1,1,9254,1,1,143,Higher,Basic,High-skilled,High-skilled,133.2,1,0,0,1,0,0,19,0,10.8,1.4,1.74,'Not on time'
1,15,1,9147,1,1,133.1,Higher,Secondary,High-skilled,Clerical/service,100,0,0,1,0,1,0,26,1,11.1,0.6,2.02,'Not on time'
1,17,3,9119,1,1,138,Secondary,Basic,Clerical/service,High-skilled,125.4,1,0,0,1,1,1,18,0,8.9,1.4,3.51,'Not on time'
1,1,2,9147,1,1,120,Secondary,Basic,Clerical/service,Low-skilled,113.4,1,0,0,1,1,1,19,0,11.1,0.6,2.02,'Not on time'
1,39,1,9670,1,1,120,Basic,Basic,'Manual skilled','Manual skilled',140,0,0,0,1,1,0,24,0,15.5,2.8,-4.06,'Not on time'
2,17,5,9119,1,1,126,Basic,Basic,Clerical/service,Clerical/service,122.9,1,0,0,1,1,0,21,0,7.6,2.6,0.32,'Not on time'
1,39,1,9991,0,1,133,Basic,Basic,Low-skilled,Clerical/service,139.2,1,0,1,1,1,0,33,0,12.7,3.7,-1.7,'Not on time'
1,43,1,8014,0,1,131,Basic,Basic,'Manual skilled',Clerical/service,125,0,0,0,1,1,0,24,0,16.2,0.3,-0.92,'Not on time'
2,39,1,9500,1,1,130,Basic,Basic,Low-skilled,'Manual skilled',163.7,0,0,0,1,0,0,35,0,12.4,0.5,1.79,'Not on time'
1,17,1,9254,1,1,127,Secondary,Secondary,Clerical/service,'Manual skilled',126.7,1,0,0,0,1,0,22,0,12.4,0.5,1.79,'Not on time'
1,39,1,9147,1,12,133.1,Secondary,Secondary,Low-skilled,Clerical/service,140,1,0,1,0,1,0,24,0,12.7,3.7,-1.7,'Not on time'
1,17,1,9773,1,1,112,Secondary,Secondary,Clerical/service,High-skilled,111.7,0,0,1,0,1,0,19,0,15.5,2.8,-4.06,'Not on time'
1,39,1,9500,1,1,130,Basic,Basic,Low-skilled,'Manual skilled',106.2,1,0,0,1,0,0,27,0,11.1,0.6,2.02,'Not on time'
4,17,5,8014,0,1,100,Basic,Basic,Other/unknown,Other/unknown,107,0,0,0,1,0,0,38,0,10.8,1.4,1.74,'Not on time'
2,7,1,9254,1,2,100,Basic,Basic,Low-skilled,Low-skilled,100,0,0,0,0,0,0,37,0,10.8,1.4,1.74,'Not on time'
1,15,1,33,1,1,133.1,Higher,Higher,High-skilled,Clerical/service,100,0,0,0,1,1,0,20,1,8.9,1.4,3.51,'Not on time'
1,43,1,9130,1,1,133.1,Basic,Basic,Low-skilled,'Manual skilled',100,0,0,0,1,0,0,37,1,13.9,-0.3,0.79,'Not on time'
2,39,2,9670,1,19,133.1,Basic,Basic,Low-skilled,Low-skilled,135.6,0,0,0,1,0,0,46,0,12.4,0.5,1.79,'Not on time'
1,43,1,9991,0,1,120,Basic,Basic,High-skilled,Low-skilled,100,0,0,0,1,0,0,34,0,13.9,-0.3,0.79,'Not on time'
1,44,1,9003,1,39,120,Secondary,Basic,Clerical/service,'Manual skilled',120,0,0,0,1,1,0,23,0,15.5,2.8,-4.06,'Not on time'
1,1,1,9670,1,1,127,Secondary,Basic,Clerical/service,Low-skilled,128.1,0,0,0,1,1,0,19,0,7.6,2.6,0.32,'Not on time'
1,1,2,9254,1,1,125,Secondary,Basic,Clerical/service,High-skilled,121.5,1,0,0,1,1,0,18,0,9.4,-0.8,-3.12,'Not on time'
1,16,5,9085,1,1,134,Basic,Basic,'Manual skilled','Manual skilled',123.9,1,0,0,1,1,0,18,0,9.4,-0.8,-3.12,'Not on time'
2,39,1,9556,1,1,120,Basic,Basic,Low-skilled,Clerical/service,150,0,0,0,0,0,0,50,0,12.7,3.7,-1.7,'Not on time'
1,1,1,9670,1,1,141,Basic,Higher,Clerical/service,Other/unknown,137.9,1,0,0,0,1,0,20,0,7.6,2.6,0.32,'Not on time'
1,17,4,9254,1,1,124,Higher,Higher,High-skilled,High-skilled,126.1,1,0,0,1,0,0,20,0,10.8,1.4,1.74,'Not on time'
1,1,2,9853,1,1,131,Secondary,Secondary,High-skilled,Low-skilled,121.9,1,0,0,1,0,0,20,0,12.7,3.7,-1.7,'Not on time'
1,39,1,9991,0,1,133.1,Secondary,Secondary,Clerical/service,High-skilled,127.7,0,0,0,1,0,0,25,0,13.9,-0.3,0.79,'Not on time'
1,1,1,9119,1,1,128,Basic,Basic,Low-skilled,'Manual skilled',124.5,1,0,0,1,1,0,19,0,7.6,2.6,0.32,'Not on time'
1,1,1,171,1,1,124,Basic,Secondary,Low-skilled,Low-skilled,121.2,1,0,0,1,1,0,20,0,10.8,1.4,1.74,'Not on time'
1,39,1,9119,1,3,130,Higher,Higher,High-skilled,Other/unknown,147.6,0,0,0,1,1,0,31,0,10.8,1.4,1.74,'Not on time'
1,1,1,9119,1,1,131,Higher,Secondary,Clerical/service,High-skilled,135.9,0,0,0,1,1,0,18,0,7.6,2.6,0.32,'Not on time'
1,42,1,9500,1,1,133.1,Higher,Secondary,High-skilled,Other/unknown,100,1,0,0,0,0,0,33,1,12.4,0.5,1.79,'Not on time'
2,39,1,9991,0,1,110,Basic,Basic,Clerical/service,High-skilled,120,1,0,0,1,0,0,38,0,9.4,-0.8,-3.12,'Not on time'
2,39,1,8014,0,1,140,Basic,Higher,Low-skilled,Other/unknown,172,0,0,0,1,1,0,44,0,12.4,0.5,1.79,'Not on time'
1,17,4,9254,1,1,122,Secondary,Secondary,Clerical/service,High-skilled,116.1,1,0,0,1,1,0,19,0,7.6,2.6,0.32,'Not on time'
1,43,1,9130,1,1,156,Basic,Secondary,Low-skilled,Clerical/service,156,0,0,1,0,1,0,24,0,15.5,2.8,-4.06,'Not on time'
1,17,2,9070,1,1,152,Secondary,Secondary,High-skilled,High-skilled,134.2,1,0,0,1,1,0,20,0,15.5,2.8,-4.06,'Not on time'
1,44,1,9130,1,39,150,Secondary,Basic,Clerical/service,'Manual skilled',150,1,0,0,0,0,0,22,0,15.5,2.8,-4.06,'Not on time'
1,7,1,9500,1,3,140,Higher,Basic,High-skilled,'Manual skilled',140,0,0,0,1,1,0,27,0,12.4,0.5,1.79,'Not on time'
1,17,6,9254,1,1,108,Secondary,Basic,Clerical/service,Clerical/service,112.2,1,0,0,1,1,0,19,0,9.4,-0.8,-3.12,'Not on time'
1,17,3,9147,1,1,122,Higher,Basic,High-skilled,'Manual skilled',116.1,1,0,1,1,1,0,19,0,8.9,1.4,3.51,'Not on time'
1,1,4,9147,1,1,146,Higher,Secondary,High-skilled,Other/unknown,138.7,0,0,0,1,1,0,18,0,8.9,1.4,3.51,'Not on time'
1,39,1,9003,1,19,133.1,Basic,Basic,Clerical/service,Low-skilled,110,0,0,1,0,0,0,40,0,11.1,0.6,2.02,'Not on time'
1,43,1,9991,0,3,130,Higher,Secondary,High-skilled,Low-skilled,130,0,0,0,1,1,0,33,0,12.7,3.7,-1.7,'Not on time'
1,18,1,9070,1,1,117,Secondary,Basic,Clerical/service,'Manual skilled',127.9,1,0,0,1,1,0,20,0,9.4,-0.8,-3.12,'Not on time'
1,1,3,9500,1,1,122,Higher,Secondary,Clerical/service,High-skilled,114.8,1,0,0,1,0,1,19,0,12.4,0.5,1.79,'Not on time'
1,1,1,9147,1,1,128,Basic,Basic,Clerical/service,'Manual skilled',122.1,0,0,0,1,0,1,18,0,13.9,-0.3,0.79,'Not on time'
1,17,1,9130,1,1,125,Basic,Basic,High-skilled,Other/unknown,131,1,0,0,1,1,0,19,0,10.8,1.4,1.74,'Not on time'
1,43,3,9254,1,1,135,Higher,Higher,High-skilled,High-skilled,122.1,0,0,0,1,1,0,19,0,12.7,3.7,-1.7,'Not on time'
2,42,1,9991,0,1,130,Higher,Higher,High-skilled,High-skilled,130,0,0,0,1,1,0,27,0,12.7,3.7,-1.7,'Not on time'
1,39,2,9147,1,1,130,Basic,Basic,Clerical/service,Low-skilled,121.5,0,0,0,0,1,0,26,0,10.8,1.4,1.74,'Not on time'
1,39,1,9556,1,19,133.1,Higher,Secondary,High-skilled,'Manual skilled',110.5,0,0,0,1,1,0,37,0,11.1,0.6,2.02,'Not on time'
1,17,1,9254,1,1,128,Basic,Basic,Low-skilled,Low-skilled,118.2,0,0,0,1,0,0,19,0,8.9,1.4,3.51,'Not on time'
1,1,1,171,1,1,147,Higher,Higher,Clerical/service,'Manual skilled',145.3,1,0,0,1,0,0,18,0,12.4,0.5,1.79,'Not on time'
2,17,3,8014,0,1,123,Basic,Basic,High-skilled,High-skilled,113.2,0,0,1,0,0,0,18,0,7.6,2.6,0.32,'Not on time'
1,1,1,9070,1,1,123,Basic,Basic,Low-skilled,Clerical/service,124.8,0,0,0,0,0,1,18,0,8.9,1.4,3.51,'Not on time'
1,1,1,171,1,1,138,Basic,Basic,'Manual skilled','Manual skilled',124,1,0,0,0,0,0,19,0,10.8,1.4,1.74,'Not on time'
1,18,1,9500,1,1,128,Basic,Secondary,Low-skilled,Clerical/service,125.8,0,0,0,1,0,1,20,0,9.4,-0.8,-3.12,'Not on time'
1,51,1,9070,1,1,143,Secondary,Secondary,Clerical/service,Clerical/service,120,1,0,0,1,0,0,21,0,11.1,0.6,2.02,'Not on time'
1,43,1,171,1,2,140,Basic,Basic,Low-skilled,Low-skilled,140,1,0,0,1,0,0,34,0,10.8,1.4,1.74,'Not on time'
1,1,1,9238,1,1,157,Basic,Basic,Low-skilled,Clerical/service,137.8,0,0,0,1,0,1,18,0,15.5,2.8,-4.06,'Not on time'
2,39,1,9853,1,1,110,Basic,Basic,Low-skilled,Low-skilled,95.5,0,0,1,0,0,0,32,0,10.8,1.4,1.74,'Not on time'
1,17,4,171,1,1,133.1,Basic,Basic,Low-skilled,Low-skilled,117,1,0,0,1,1,0,21,0,10.8,1.4,1.74,'Not on time'
1,42,1,9500,1,1,100,Higher,Basic,High-skilled,'Manual skilled',153,0,0,0,1,1,0,22,0,15.5,2.8,-4.06,'Not on time'
1,17,2,9556,1,1,125,Basic,Basic,'Manual skilled','Manual skilled',121.5,1,0,0,1,0,0,20,0,11.1,0.6,2.02,'Not on time'
1,18,4,9853,1,1,123,Basic,Basic,Clerical/service,Other/unknown,123.7,1,0,0,1,0,0,19,0,15.5,2.8,-4.06,'Not on time'
1,39,1,9670,1,19,133.1,Secondary,Secondary,Clerical/service,'Manual skilled',100,0,0,1,0,0,0,25,0,9.4,-0.8,-3.12,'Not on time'
1,17,1,9773,1,1,133.1,Basic,Basic,Low-skilled,Clerical/service,117,0,0,0,1,0,0,21,0,15.5,2.8,-4.06,'Not on time'
1,44,3,9085,1,39,150,Secondary,Basic,Clerical/service,High-skilled,150,1,0,0,1,0,0,19,0,12.7,3.7,-1.7,'Not on time'
1,17,1,9085,1,1,109,Basic,Basic,Clerical/service,Low-skilled,104.1,1,0,1,0,0,1,21,0,15.5,2.8,-4.06,'Not on time'
1,1,1,171,1,1,170,Basic,Basic,'Manual skilled','Manual skilled',176.7,1,0,0,1,0,1,19,0,11.1,0.6,2.02,'Not on time'
1,17,1,9130,1,1,143,Higher,Higher,High-skilled,High-skilled,131.8,1,0,1,0,0,0,18,0,8.9,1.4,3.51,'Not on time'
1,17,1,9238,1,1,103,Basic,Basic,'Manual skilled',Low-skilled,104.1,0,0,0,1,0,0,20,0,8.9,1.4,3.51,'Not on time'
1,17,2,9238,1,1,133,Higher,Secondary,High-skilled,Clerical/service,136.2,1,0,0,1,0,0,19,0,7.6,2.6,0.32,'Not on time'
1,39,1,9003,1,1,130,Higher,Secondary,High-skilled,Clerical/service,154.9,0,0,1,0,1,0,35,0,8.9,1.4,3.51,'Not on time'
1,1,3,9147,1,1,136,Basic,Basic,Low-skilled,Low-skilled,127.3,1,0,0,1,1,0,19,0,12.7,3.7,-1.7,'Not on time'
1,1,5,9147,1,1,132,Secondary,Secondary,High-skilled,High-skilled,127.8,1,0,0,0,1,0,18,0,11.1,0.6,2.02,'Not on time'
1,1,1,9238,1,1,140,Basic,Basic,Low-skilled,Low-skilled,132,0,0,0,1,1,0,19,0,16.2,0.3,-0.92,'Not on time'
1,43,3,9254,1,1,110,Basic,Basic,Low-skilled,Low-skilled,107.2,1,0,0,1,1,0,19,0,7.6,2.6,0.32,'Not on time'
1,43,1,9254,1,6,138.6,Unknown,Unknown,Other/unknown,Other/unknown,138.6,1,0,0,1,1,0,20,0,7.6,2.6,0.32,'Not on time'
1,39,1,9085,1,12,133.1,Basic,Basic,Low-skilled,'Manual skilled',138.3,1,0,1,0,1,0,25,0,8.9,1.4,3.51,'Not on time'
1,43,2,9500,1,1,136,Basic,Secondary,Low-skilled,Other/unknown,124.1,0,0,0,1,1,1,21,0,9.4,-0.8,-3.12,'Not on time'
1,39,1,9119,1,12,133.1,Unknown,Unknown,Other/unknown,Other/unknown,95.1,0,0,0,0,1,0,49,0,10.8,1.4,1.74,'Not on time'
1,7,1,9070,1,3,120,Higher,Higher,High-skilled,High-skilled,120,0,0,0,1,1,0,28,0,12.7,3.7,-1.7,'Not on time'
1,1,1,9853,1,1,110,Basic,Basic,Low-skilled,Clerical/service,114.3,1,0,0,1,1,0,42,0,7.6,2.6,0.32,'Not on time'
2,39,1,9991,0,1,100,Basic,Basic,High-skilled,High-skilled,161.9,0,0,0,1,1,0,59,0,16.2,0.3,-0.92,'Not on time'
1,1,2,9991,0,1,123,Secondary,Higher,Clerical/service,High-skilled,113.2,0,0,0,0,1,0,22,0,7.6,2.6,0.32,'Not on time'
1,1,1,9070,1,1,140,Basic,Basic,Clerical/service,Clerical/service,138.3,0,0,0,1,1,0,20,0,13.9,-0.3,0.79,'Not on time'
1,18,1,9147,1,1,131,Unknown,Unknown,Other/unknown,Other/unknown,131,0,0,0,1,1,0,22,0,9.4,-0.8,-3.12,'Not on time'
1,17,1,9070,1,1,131,Basic,Basic,'Manual skilled','Manual skilled',125.1,0,0,0,1,1,0,18,0,16.2,0.3,-0.92,'Not on time'
1,7,1,9130,1,3,140,Higher,Basic,High-skilled,High-skilled,140,1,0,0,0,1,0,18,0,12.7,3.7,-1.7,'Not on time'
1,39,1,9119,1,19,133.1,Secondary,Secondary,Clerical/service,High-skilled,134.4,0,0,1,0,1,0,31,0,16.2,0.3,-0.92,'Not on time'
2,39,1,9991,0,1,130,Basic,Basic,Low-skilled,Low-skilled,140,1,0,0,1,1,0,31,0,9.4,-0.8,-3.12,'Not on time'
2,39,1,9070,1,12,110,Basic,Basic,Clerical/service,Other/unknown,130,0,0,1,0,1,1,46,0,15.5,2.8,-4.06,'Not on time'
1,39,1,9130,1,1,120,Secondary,Basic,Low-skilled,Low-skilled,150,0,0,0,1,1,0,25,0,12.4,0.5,1.79,'Not on time'
1,43,1,9670,1,1,132,Higher,Basic,Clerical/service,'Manual skilled',120.5,0,0,0,1,1,0,19,0,13.9,-0.3,0.79,'Not on time'
1,39,1,9119,1,1,139,Basic,Basic,Low-skilled,'Manual skilled',110.3,0,0,1,1,1,0,24,0,8.9,1.4,3.51,'Not on time'
1,1,1,9773,1,1,140,Higher,Higher,Clerical/service,'Manual skilled',133.4,1,0,0,0,1,0,29,0,11.1,0.6,2.02,'Not on time'
1,39,1,9130,1,1,150,Basic,Basic,Low-skilled,Clerical/service,160,1,0,0,1,1,0,24,0,9.4,-0.8,-3.12,'Not on time'
1,53,1,9003,1,1,130,Basic,Secondary,Low-skilled,Low-skilled,130,0,0,1,1,1,0,21,0,8.9,1.4,3.51,'Not on time'
2,39,1,9003,1,1,130,Secondary,Basic,Low-skilled,High-skilled,122,0,0,1,0,1,0,25,0,15.5,2.8,-4.06,'Not on time'
1,39,1,9003,1,1,140,Secondary,Higher,Clerical/service,Clerical/service,130,0,0,0,1,1,0,25,0,16.2,0.3,-0.92,'Not on time'
4,39,1,9500,1,19,110,Basic,Basic,Clerical/service,Clerical/service,151,0,0,1,0,1,0,47,0,15.5,2.8,-4.06,'Not on time'
2,39,2,9991,0,1,150,Basic,Basic,Low-skilled,Low-skilled,120,0,0,0,1,0,0,43,0,9.4,-0.8,-3.12,'Not on time'
2,39,1,9991,0,19,133.1,Basic,Basic,Clerical/service,Clerical/service,111.9,1,0,0,1,1,0,41,0,7.6,2.6,0.32,'Not on time'
1,39,1,9003,1,19,133.1,Secondary,Basic,Clerical/service,Other/unknown,114,0,0,0,1,1,0,29,0,15.5,2.8,-4.06,'Not on time'
1,1,4,9119,1,1,111,Basic,Basic,Low-skilled,Clerical/service,107.5,1,0,0,1,1,1,22,0,11.1,0.6,2.02,'Not on time'
2,43,1,9670,1,1,120,Unknown,Unknown,Other/unknown,Other/unknown,128.2,0,0,0,1,1,0,35,0,9.4,-0.8,-3.12,'Not on time'
1,7,1,9991,0,3,130,Basic,Basic,Low-skilled,Low-skilled,130,0,0,0,1,1,0,31,0,12.7,3.7,-1.7,'Not on time'
1,1,1,9147,1,1,166,Basic,Basic,Clerical/service,'Manual skilled',146.4,0,0,0,1,1,0,27,0,7.6,2.6,0.32,'Not on time'
1,17,5,9254,1,1,130,Basic,Basic,Low-skilled,Low-skilled,122.7,1,0,1,1,1,1,20,0,8.9,1.4,3.51,'Not on time'
1,43,1,9070,1,1,125,Basic,Basic,'Manual skilled','Manual skilled',131.7,1,0,0,1,1,0,20,0,12.4,0.5,1.79,'Not on time'
1,39,1,9003,1,1,133.1,Secondary,Secondary,High-skilled,'Manual skilled',120,0,0,0,0,1,0,24,0,13.9,-0.3,0.79,'Not on time'
2,39,1,9003,1,1,133.1,Basic,Basic,Low-skilled,Low-skilled,100,0,0,0,0,1,0,44,0,15.5,2.8,-4.06,'Not on time'
1,1,2,9147,1,1,128,Secondary,Secondary,Low-skilled,'Manual skilled',120.3,0,0,0,1,1,0,19,0,8.9,1.4,3.51,'Not on time'
1,10,2,9773,1,1,154.4,Basic,Basic,High-skilled,Clerical/service,154.4,1,0,0,0,0,0,18,1,10.8,1.4,1.74,'Not on time'
1,17,4,9238,1,1,133.1,Secondary,Basic,Low-skilled,Clerical/service,95,1,0,0,1,0,1,19,0,15.5,2.8,-4.06,'Not on time'
1,7,1,9147,1,3,120,Secondary,Secondary,Clerical/service,'Manual skilled',120,0,0,0,1,0,0,33,0,12.4,0.5,1.79,'Not on time'
1,17,3,9070,1,1,145,Higher,Higher,Clerical/service,Clerical/service,153.1,1,0,0,1,0,1,20,0,12.7,3.7,-1.7,'Not on time'
1,43,1,9147,1,1,142,Basic,Basic,Clerical/service,'Manual skilled',115,0,0,0,1,0,0,19,0,13.9,-0.3,0.79,'Not on time'
1,39,1,9147,1,12,133.1,Basic,Basic,Low-skilled,'Manual skilled',139.4,0,0,1,1,0,0,41,0,7.6,2.6,0.32,'Not on time'
1,18,2,9147,1,1,115,Secondary,Basic,Clerical/service,Clerical/service,108.7,1,0,0,1,0,0,21,0,9.4,-0.8,-3.12,'Not on time'
1,1,1,9853,1,1,133.1,Basic,Basic,Low-skilled,Low-skilled,95,1,0,1,0,0,0,22,0,11.1,0.6,2.02,'Not on time'
1,17,3,9085,1,1,130,Basic,Basic,Clerical/service,Clerical/service,121.3,1,0,0,1,0,0,21,0,9.4,-0.8,-3.12,'Not on time'
1,17,1,9238,1,1,152,Basic,Basic,'Manual skilled',Clerical/service,132.1,1,0,0,1,0,0,19,0,9.4,-0.8,-3.12,'Not on time'
1,1,1,9130,1,1,148,Secondary,Secondary,Low-skilled,Low-skilled,141.7,0,0,0,0,1,0,18,0,8.9,1.4,3.51,'Not on time'
1,39,1,9991,0,1,110,Basic,Basic,Low-skilled,Low-skilled,134.3,0,0,0,1,1,0,24,0,10.8,1.4,1.74,'Not on time'
1,17,1,9254,1,1,132,Basic,Basic,Other/unknown,Clerical/service,126.1,0,0,0,1,1,0,20,0,7.6,2.6,0.32,'Not on time'
1,17,5,9670,1,1,127,Higher,Higher,High-skilled,High-skilled,122.8,0,0,0,1,1,0,20,0,10.8,1.4,1.74,'Not on time'
1,43,1,8014,0,12,133.1,Basic,Secondary,Low-skilled,Other/unknown,112.5,0,0,0,1,1,0,50,0,16.2,0.3,-0.92,'Not on time'
1,17,2,9853,1,1,114,Secondary,Basic,Low-skilled,Low-skilled,111.9,1,0,0,1,1,1,20,0,7.6,2.6,0.32,'Not on time'
1,39,1,9991,0,1,120,Secondary,Secondary,Clerical/service,Clerical/service,96,1,0,0,0,1,0,38,0,8.9,1.4,3.51,'Not on time'
1,17,5,9119,1,1,138,Basic,Basic,Clerical/service,Clerical/service,123.3,1,0,1,1,1,0,18,0,12.4,0.5,1.79,'Not on time'
1,44,1,9003,1,39,140,Basic,Secondary,High-skilled,High-skilled,140,1,0,1,1,1,0,26,0,8.9,1.4,3.51,'Not on time'
1,51,1,9147,1,1,130,Basic,Basic,Low-skilled,'Manual skilled',115.7,0,0,0,1,1,0,20,0,8.9,1.4,3.51,'Not on time'
1,39,1,9500,1,1,120,Secondary,Higher,Clerical/service,High-skilled,125.3,0,0,1,1,1,0,30,0,12.4,0.5,1.79,'Not on time'
2,42,1,9003,1,1,120,Higher,Secondary,High-skilled,High-skilled,113.3,0,0,0,1,1,0,26,0,12.4,0.5,1.79,'Not on time'
1,1,1,9147,1,1,136,Secondary,Higher,Low-skilled,Clerical/service,137.1,0,0,0,1,1,0,20,0,12.7,3.7,-1.7,'Not on time'
2,39,2,9556,1,1,110,Basic,Basic,Low-skilled,Low-skilled,112.8,0,0,0,1,0,1,26,0,10.8,1.4,1.74,'Not on time'
1,39,1,9085,1,1,130,Higher,Secondary,High-skilled,Low-skilled,120,0,0,0,0,0,0,26,0,11.1,0.6,2.02,'Not on time'
1,1,1,9500,1,1,106,Basic,Basic,Low-skilled,'Manual skilled',102.2,1,0,1,1,1,0,20,0,11.1,0.6,2.02,'Not on time'
2,39,1,8014,0,19,133.1,Basic,Basic,'Manual skilled','Manual skilled',149.5,0,0,0,1,1,0,48,0,12.4,0.5,1.79,'Not on time'
1,44,1,9003,1,39,130,Higher,Higher,Low-skilled,'Manual skilled',130,0,0,0,1,1,0,20,0,12.4,0.5,1.79,'Not on time'
6,17,3,8014,0,1,115,Basic,Secondary,Clerical/service,Other/unknown,115,0,0,0,0,0,0,24,0,10.8,1.4,1.74,'Not on time'
1,43,2,9670,1,1,129,Higher,Higher,Clerical/service,Clerical/service,122.4,1,0,0,1,0,0,19,0,12.7,3.7,-1.7,'Not on time'
1,1,3,9670,1,1,120,Basic,Basic,'Manual skilled','Manual skilled',111.3,1,0,0,1,1,0,19,0,9.4,-0.8,-3.12,'Not on time'
1,39,1,9500,1,1,137,Basic,Basic,Low-skilled,Low-skilled,141,0,0,0,1,1,0,36,0,12.4,0.5,1.79,'Not on time'
1,39,1,9500,1,1,100,Basic,Secondary,High-skilled,Other/unknown,114,1,0,1,0,0,0,31,0,7.6,2.6,0.32,'Not on time'
1,1,5,9500,1,1,125,Higher,Basic,Clerical/service,'Manual skilled',120.3,1,0,0,1,0,0,19,0,13.9,-0.3,0.79,'Not on time'
2,39,1,9003,1,1,150,Higher,Higher,High-skilled,High-skilled,120,0,0,1,0,0,0,34,0,11.1,0.6,2.02,'Not on time'
1,39,1,9085,1,1,130,Basic,Basic,'Manual skilled','Manual skilled',110,0,0,0,1,0,1,25,0,11.1,0.6,2.02,'Not on time'
2,42,1,9147,1,1,100,Basic,Basic,Low-skilled,Low-skilled,100,1,0,0,1,0,0,54,0,15.5,2.8,-4.06,'Not on time'
4,43,1,8014,0,12,133.1,Unknown,Unknown,Other/unknown,Other/unknown,106,1,0,0,1,0,0,48,0,7.6,2.6,0.32,'Not on time'
2,43,1,9991,0,1,140,Basic,Basic,Clerical/service,'Manual skilled',117.3,0,0,0,1,0,0,28,0,7.6,2.6,0.32,'Not on time'
2,42,1,9853,1,1,133.1,Basic,Basic,Clerical/service,'Manual skilled',100,0,0,0,1,0,0,34,0,12.7,3.7,-1.7,'Not on time'
2,43,1,8014,0,1,130,Unknown,Unknown,Other/unknown,Other/unknown,130,0,0,0,1,0,0,45,0,9.4,-0.8,-3.12,'Not on time'
1,44,1,9003,1,1,140,Secondary,Basic,High-skilled,Low-skilled,140,1,0,1,0,0,0,23,0,12.4,0.5,1.79,'Not on time'
1,43,1,9991,0,2,110,Basic,Basic,Low-skilled,Low-skilled,112.9,0,0,0,1,0,0,38,0,9.4,-0.8,-3.12,'Not on time'
1,1,1,171,1,1,122,Basic,Basic,Low-skilled,High-skilled,115.7,1,0,0,1,0,0,20,0,9.4,-0.8,-3.12,'Not on time'
2,39,1,8014,0,12,133.1,Unknown,Unknown,Other/unknown,Other/unknown,135,0,0,0,1,0,0,51,0,7.6,2.6,0.32,'Not on time'
1,39,1,8014,0,1,100,Basic,Basic,'Manual skilled',Clerical/service,107.5,0,0,0,1,0,0,41,0,12.7,3.7,-1.7,'Not on time'
2,39,2,9670,1,1,100,Basic,Basic,Low-skilled,Low-skilled,100,0,0,0,1,0,0,35,0,9.4,-0.8,-3.12,'Not on time'
1,1,1,9070,1,1,124,Basic,Basic,Low-skilled,Low-skilled,138.4,1,0,1,1,0,1,19,0,13.9,-0.3,0.79,'Not on time'
1,42,1,9853,1,12,133.1,Secondary,Higher,High-skilled,High-skilled,133.7,0,0,0,1,0,0,28,0,16.2,0.3,-0.92,'Not on time'
1,17,1,9147,1,1,120,Higher,Higher,High-skilled,High-skilled,112,0,0,0,1,0,0,20,0,15.5,2.8,-4.06,'Not on time'
1,17,5,9147,1,1,127,Secondary,Basic,Clerical/service,Clerical/service,124.6,1,0,0,1,0,1,19,0,11.1,0.6,2.02,'Not on time'
1,1,4,9773,1,1,137,Higher,Basic,High-skilled,High-skilled,139.8,1,1,0,1,0,0,18,0,10.8,1.4,1.74,'Not on time'
1,1,3,9773,1,1,134,Secondary,Basic,Low-skilled,Low-skilled,136.1,1,0,0,1,0,1,20,0,12.4,0.5,1.79,'Not on time'
1,42,1,9147,1,1,139,Higher,Basic,High-skilled,Clerical/service,112.3,1,0,0,1,0,0,19,0,10.8,1.4,1.74,'Not on time'
1,17,2,9254,1,1,129,Secondary,Basic,Low-skilled,Low-skilled,122,1,0,0,1,0,0,18,0,10.8,1.4,1.74,'Not on time'
1,1,3,9670,1,1,121,Secondary,Basic,Clerical/service,Clerical/service,111.9,1,0,0,1,1,1,20,0,10.8,1.4,1.74,'Not on time'
1,1,1,9670,1,1,132,Higher,Higher,High-skilled,High-skilled,143.6,1,0,0,1,1,0,20,0,13.9,-0.3,0.79,'Not on time'
2,7,1,9147,1,3,110,Basic,Secondary,Low-skilled,Low-skilled,110,0,0,0,1,0,0,33,0,11.1,0.6,2.02,'Not on time'
1,1,1,9238,1,1,138,Basic,Basic,Low-skilled,Low-skilled,135.9,1,0,0,1,0,0,19,0,7.6,2.6,0.32,'Not on time'
1,1,5,9773,1,1,127,Basic,Secondary,Clerical/service,Clerical/service,121.1,1,0,0,1,0,0,18,0,15.5,2.8,-4.06,'Not on time'
1,1,1,9085,1,1,133.1,Basic,Basic,High-skilled,High-skilled,115,1,0,0,1,0,0,21,0,12.7,3.7,-1.7,'Not on time'
1,17,1,9500,1,1,141,Higher,Basic,High-skilled,Other/unknown,135.4,1,0,0,1,0,0,18,0,13.9,-0.3,0.79,'Not on time'
1,1,1,9130,1,1,117,Secondary,Secondary,Low-skilled,Low-skilled,109.3,1,0,0,1,0,0,20,0,12.7,3.7,-1.7,'Not on time'
1,17,1,9254,1,1,121,Secondary,Secondary,Clerical/service,Clerical/service,123.1,1,0,0,1,1,0,21,0,7.6,2.6,0.32,'Not on time'
1,18,2,9853,1,1,123,Secondary,Higher,Low-skilled,High-skilled,123.7,1,0,1,0,0,0,20,0,10.8,1.4,1.74,'Not on time'
1,43,1,9500,1,1,140,Basic,Basic,Low-skilled,'Manual skilled',125.7,1,0,0,1,1,1,19,0,7.6,2.6,0.32,'Not on time'
1,1,1,9500,1,1,135,Basic,Basic,Clerical/service,Clerical/service,126.8,1,0,0,1,1,0,19,0,15.5,2.8,-4.06,'Not on time'
1,1,2,9147,1,1,122,Secondary,Basic,Clerical/service,Clerical/service,116.4,0,0,0,1,1,0,21,0,15.5,2.8,-4.06,'Not on time'
1,7,1,9254,1,3,110,Basic,Basic,High-skilled,High-skilled,110,0,0,0,1,1,0,35,0,16.2,0.3,-0.92,'Not on time'
1,39,1,9991,0,1,133.1,Basic,Basic,'Manual skilled',Low-skilled,111,0,0,0,0,1,0,28,0,8.9,1.4,3.51,'Not on time'
1,17,2,9254,1,1,140,Higher,Higher,High-skilled,High-skilled,124.3,0,0,0,0,1,0,18,0,9.4,-0.8,-3.12,'Not on time'
1,17,1,9991,0,1,120,Basic,Higher,Low-skilled,High-skilled,116.9,1,0,1,0,0,0,26,0,10.8,1.4,1.74,'Not on time'
1,1,1,9670,1,1,113,Basic,Basic,Low-skilled,Low-skilled,110.2,1,0,0,1,0,0,22,0,7.6,2.6,0.32,'Not on time'
1,7,1,9556,1,2,130,Basic,Basic,Low-skilled,Low-skilled,130,1,0,0,1,0,1,36,0,12.7,3.7,-1.7,'Not on time'
2,39,1,9991,0,39,140,Basic,Basic,Low-skilled,Clerical/service,110,0,0,0,1,0,1,35,0,12.7,3.7,-1.7,'Not on time'
1,39,1,9003,1,19,133.1,Basic,Basic,Low-skilled,Low-skilled,130,0,0,0,1,0,0,44,0,11.1,0.6,2.02,'Not on time'
2,39,1,9991,0,1,162,Basic,Basic,Low-skilled,'Manual skilled',132,0,0,1,1,1,0,25,0,7.6,2.6,0.32,'Not on time'
1,1,1,9238,1,1,170,Basic,Basic,Other/unknown,Other/unknown,150.8,1,0,0,1,0,0,27,0,7.6,2.6,0.32,'Not on time'
1,1,5,9500,1,1,141,Basic,Basic,'Manual skilled','Manual skilled',132.5,1,0,0,0,0,0,19,0,12.7,3.7,-1.7,'Not on time'
1,1,1,9254,1,1,120,Secondary,Secondary,Low-skilled,Other/unknown,118.3,0,0,0,1,1,0,20,0,8.9,1.4,3.51,'Not on time'
1,17,4,9147,1,1,135,Basic,Secondary,Other/unknown,Clerical/service,128.7,1,0,0,1,1,0,22,0,7.6,2.6,0.32,'Not on time'
5,39,1,9119,1,1,120,Basic,Basic,Low-skilled,Low-skilled,116,0,0,1,1,1,1,34,0,9.4,-0.8,-3.12,'Not on time'
1,17,4,9773,1,1,129,Higher,Secondary,High-skilled,'Manual skilled',132.5,1,0,0,1,1,0,21,0,10.8,1.4,1.74,'Not on time'
1,1,3,9773,1,1,142,Unknown,Secondary,Clerical/service,Other/unknown,136.1,1,0,0,0,1,0,19,0,9.4,-0.8,-3.12,'Not on time'
1,39,1,9500,1,1,120,Basic,Basic,Low-skilled,'Manual skilled',108.5,0,0,0,1,1,0,36,0,13.9,-0.3,0.79,'Not on time'
1,39,1,9119,1,1,138.7,Secondary,Secondary,Clerical/service,High-skilled,111.3,0,0,0,1,1,0,27,0,13.9,-0.3,0.79,'Not on time'
1,1,1,9147,1,1,143,Secondary,Basic,Low-skilled,Low-skilled,135,1,0,0,1,0,0,21,0,7.6,2.6,0.32,'Not on time'
1,1,1,9991,0,1,122,Basic,Basic,Low-skilled,High-skilled,113.6,0,0,0,1,1,0,26,0,7.6,2.6,0.32,'Not on time'
1,39,1,9500,1,1,130,Basic,Basic,Low-skilled,'Manual skilled',105.8,0,0,0,1,0,0,26,0,13.9,-0.3,0.79,'Not on time'
1,1,2,9147,1,1,129,Basic,Basic,High-skilled,'Manual skilled',118.9,1,0,0,1,0,0,19,0,10.8,1.4,1.74,'Not on time'
1,1,6,9500,1,1,136,Secondary,Secondary,Clerical/service,Clerical/service,123.3,0,0,0,0,0,0,18,0,9.4,-0.8,-3.12,'Not on time'
1,1,1,9773,1,1,143,Higher,Higher,High-skilled,Clerical/service,144.8,0,0,0,1,0,0,19,0,16.2,0.3,-0.92,'Not on time'
1,1,1,9085,1,1,130,Secondary,Basic,Clerical/service,High-skilled,134.2,1,0,0,1,0,0,20,0,9.4,-0.8,-3.12,'Not on time'
1,17,6,9500,1,1,142,Basic,Basic,Clerical/service,Low-skilled,131.9,1,0,0,1,0,0,19,0,13.9,-0.3,0.79,'Not on time'
1,1,1,9670,1,1,120,Basic,Basic,Clerical/service,'Manual skilled',115.1,0,0,0,1,0,0,19,0,10.8,1.4,1.74,'Not on time'
1,17,1,9147,1,1,117,Basic,Basic,Low-skilled,Low-skilled,109.3,0,0,0,0,0,0,22,0,9.4,-0.8,-3.12,'Not on time'
2,39,1,9147,1,1,130,Basic,Basic,Low-skilled,Low-skilled,117.9,0,0,0,1,0,0,35,0,10.8,1.4,1.74,'Not on time'
2,1,1,9147,1,1,133.1,Unknown,Unknown,Other/unknown,Other/unknown,131.8,0,0,0,1,0,0,24,0,7.6,2.6,0.32,'Not on time'
2,39,1,9500,1,1,133.1,Basic,Basic,Low-skilled,Low-skilled,130.1,0,0,0,0,1,0,37,0,11.1,0.6,2.02,'Not on time'
1,1,1,171,1,1,162,Basic,Basic,Low-skilled,Low-skilled,142.8,1,0,0,1,1,0,21,0,12.7,3.7,-1.7,'Not on time'
2,43,1,9991,0,1,114,Basic,Basic,'Manual skilled','Manual skilled',116.7,0,0,0,1,1,0,49,0,16.2,0.3,-0.92,'Not on time'
1,17,1,9254,1,1,126,Basic,Basic,Clerical/service,High-skilled,126,0,0,0,0,1,0,29,0,9.4,-0.8,-3.12,'Not on time'
4,39,1,9670,1,19,133.1,Basic,Basic,Low-skilled,'Manual skilled',130,0,0,1,1,1,1,29,0,11.1,0.6,2.02,'Not on time'
2,42,1,9254,1,1,136,Higher,Higher,High-skilled,High-skilled,130,1,0,0,1,1,0,22,0,7.6,2.6,0.32,'Not on time'
2,39,1,9003,1,1,111,Secondary,Higher,Clerical/service,High-skilled,162.4,0,0,1,0,1,0,49,0,8.9,1.4,3.51,'Not on time'
2,39,1,9254,1,19,133.1,Unknown,Unknown,Other/unknown,Other/unknown,120,0,0,1,0,1,0,45,0,9.4,-0.8,-3.12,'Not on time'
1,17,5,9254,1,1,118,Basic,Basic,Clerical/service,Clerical/service,120.5,1,0,0,1,1,0,19,0,7.6,2.6,0.32,'Not on time'
1,39,1,9991,0,12,133.1,Basic,Basic,Low-skilled,Low-skilled,121.5,0,0,0,1,1,0,38,0,7.6,2.6,0.32,'Not on time'
1,43,1,9147,1,1,120,Basic,Basic,Clerical/service,High-skilled,113.4,0,0,0,1,1,0,22,0,12.7,3.7,-1.7,'Not on time'
1,1,4,9070,1,1,140,Higher,Basic,High-skilled,Other/unknown,125,1,0,0,1,1,0,19,0,9.4,-0.8,-3.12,'Not on time'
2,39,1,9991,0,1,160,Secondary,Higher,High-skilled,High-skilled,130,0,0,0,0,1,1,26,0,9.4,-0.8,-3.12,'Not on time'
1,17,4,9085,1,1,126,Secondary,Higher,Clerical/service,Clerical/service,123.9,1,0,0,1,1,0,21,0,10.8,1.4,1.74,'Not on time'
1,7,1,9991,0,40,130,Secondary,Higher,Clerical/service,High-skilled,130,0,0,0,1,1,0,27,0,8.9,1.4,3.51,'Not on time'
1,1,1,9130,1,1,130,Higher,Higher,Low-skilled,High-skilled,117.6,0,0,0,1,1,0,19,0,9.4,-0.8,-3.12,'Not on time'
1,17,3,9119,1,1,135,Secondary,Basic,Clerical/service,Low-skilled,121.7,1,0,0,1,1,0,18,0,8.9,1.4,3.51,'Not on time'
1,44,1,9119,1,39,130,Basic,Basic,Low-skilled,Clerical/service,130,1,0,0,1,1,0,19,0,12.4,0.5,1.79,'Not on time'
1,1,1,9119,1,1,148,Basic,Basic,Low-skilled,'Manual skilled',129.8,0,0,0,0,1,1,18,0,8.9,1.4,3.51,'Not on time'
1,17,1,8014,0,1,119,Unknown,Unknown,Other/unknown,Other/unknown,112.4,1,0,0,1,0,0,26,0,7.6,2.6,0.32,'Not on time'
4,39,1,9853,1,19,133.1,Basic,Basic,Low-skilled,Low-skilled,108,0,0,1,0,0,0,33,0,8.9,1.4,3.51,'Not on time'
1,43,1,9670,1,39,110,Basic,Higher,'Manual skilled',Other/unknown,110,0,0,0,1,0,0,21,0,16.2,0.3,-0.92,'Not on time'
1,39,1,9003,1,19,133.1,Basic,Basic,Low-skilled,Clerical/service,140,0,0,0,1,1,0,43,0,16.2,0.3,-0.92,'Not on time'
5,39,1,9147,1,1,133.1,Basic,Basic,Low-skilled,Low-skilled,119.8,0,0,0,1,1,0,26,0,11.1,0.6,2.02,'Not on time'
1,1,1,9147,1,1,132,Basic,Basic,Low-skilled,'Manual skilled',119.1,0,0,0,0,1,0,19,0,13.9,-0.3,0.79,'Not on time'
1,17,1,171,1,1,129,Secondary,Secondary,Low-skilled,Low-skilled,124.8,1,0,0,1,1,0,18,0,12.7,3.7,-1.7,'Not on time'
1,1,1,9147,1,1,120,Unknown,Unknown,Other/unknown,Other/unknown,111.6,0,0,1,1,1,1,21,0,10.8,1.4,1.74,'Not on time'
1,17,2,9670,1,1,132,Secondary,Basic,Clerical/service,High-skilled,124,1,0,0,1,1,0,21,0,7.6,2.6,0.32,'Not on time'
1,1,2,9147,1,1,116,Basic,Secondary,Clerical/service,High-skilled,124.8,1,0,0,1,1,0,20,0,7.6,2.6,0.32,'Not on time'
5,7,1,9070,1,3,140,Basic,Basic,'Manual skilled','Manual skilled',140,0,0,0,0,1,0,30,0,15.5,2.8,-4.06,'Not on time'
1,43,2,9991,0,1,140,Basic,Basic,Clerical/service,Clerical/service,124.3,1,0,0,0,1,0,27,0,12.7,3.7,-1.7,'Not on time'
1,1,1,9254,1,1,133.1,Higher,Secondary,High-skilled,Clerical/service,125,0,0,0,1,1,0,21,0,12.7,3.7,-1.7,'Not on time'
1,17,3,9853,1,1,133.1,Secondary,Secondary,Clerical/service,Other/unknown,134.8,1,0,0,1,0,0,18,0,7.6,2.6,0.32,'Not on time'
1,17,1,9991,0,1,140,Basic,Basic,'Manual skilled','Manual skilled',127.3,0,0,0,1,0,0,20,0,11.1,0.6,2.02,'Not on time'
1,44,1,9130,1,39,140,Secondary,Basic,Clerical/service,'Manual skilled',140,0,0,0,1,0,0,19,0,12.7,3.7,-1.7,'Not on time'
1,1,2,9500,1,1,106,Secondary,Basic,Clerical/service,Clerical/service,106.4,1,0,0,1,0,1,19,0,12.4,0.5,1.79,'Not on time'
1,44,1,9003,1,39,130,Higher,Secondary,Clerical/service,'Manual skilled',130,0,0,0,1,1,0,19,0,12.4,0.5,1.79,'Not on time'
1,17,1,9119,1,1,130,Basic,Basic,'Manual skilled',Low-skilled,121.3,1,0,0,1,1,0,18,0,7.6,2.6,0.32,'Not on time'
2,43,1,9991,0,1,130,Basic,Basic,Low-skilled,Low-skilled,110,1,0,0,1,0,0,38,0,7.6,2.6,0.32,'Not on time'
1,1,3,9500,1,1,131,Basic,Higher,High-skilled,High-skilled,126.1,1,0,0,1,0,0,18,0,15.5,2.8,-4.06,'Not on time'
1,39,1,9003,1,1,160,Secondary,Basic,Clerical/service,'Manual skilled',168.6,0,0,0,1,1,0,26,0,13.9,-0.3,0.79,'Not on time'
1,1,1,9119,1,1,129,Secondary,Secondary,Clerical/service,Other/unknown,124.1,1,0,0,1,1,0,19,0,7.6,2.6,0.32,'Not on time'
2,39,1,9003,1,1,120,Higher,Higher,High-skilled,Clerical/service,100,0,0,0,1,1,0,30,0,15.5,2.8,-4.06,'Not on time'
1,1,1,9254,1,1,125,Basic,Basic,Low-skilled,Low-skilled,122.9,0,0,0,1,1,1,19,0,10.8,1.4,1.74,'Not on time'
1,43,1,9773,1,1,114,Basic,Basic,Low-skilled,Clerical/service,107.4,1,0,0,0,1,0,26,0,9.4,-0.8,-3.12,'Not on time'
1,43,1,9003,1,1,120,Basic,Basic,Clerical/service,Low-skilled,120,1,0,0,1,1,0,39,0,16.2,0.3,-0.92,'Not on time'
1,39,1,9003,1,19,133.1,Basic,Basic,Low-skilled,'Manual skilled',134.3,0,0,0,1,1,0,25,0,12.4,0.5,1.79,'Not on time'
1,39,1,9085,1,1,133.1,Secondary,Secondary,Clerical/service,Clerical/service,120,0,0,1,0,1,0,31,0,9.4,-0.8,-3.12,'Not on time'
1,1,1,9670,1,1,123,Basic,Basic,Low-skilled,Low-skilled,113.9,1,0,1,0,0,0,18,0,10.8,1.4,1.74,'Not on time'
4,39,1,9085,1,1,110,Basic,Basic,Other/unknown,Other/unknown,110,0,0,0,0,0,0,35,0,9.4,-0.8,-3.12,'Not on time'
2,39,1,9147,1,1,140,Basic,Basic,'Manual skilled',Other/unknown,131.8,0,0,0,1,0,0,35,0,10.8,1.4,1.74,'Not on time'
1,17,1,9773,1,1,144,Basic,Basic,Clerical/service,Clerical/service,130.7,1,0,0,1,0,0,20,0,7.6,2.6,0.32,'Not on time'
1,1,2,9773,1,1,130,Basic,Basic,Clerical/service,High-skilled,122.3,1,0,1,0,0,0,18,0,13.9,-0.3,0.79,'Not on time'
1,1,1,9130,1,1,106,Basic,Basic,Low-skilled,Low-skilled,108,1,0,1,1,0,0,20,0,9.4,-0.8,-3.12,'Not on time'
5,39,1,9003,1,1,180,Secondary,Secondary,Clerical/service,'Manual skilled',179.6,0,0,1,0,0,0,27,0,8.9,1.4,3.51,'Not on time'
1,39,1,9500,1,19,133.1,Secondary,Basic,Clerical/service,Other/unknown,111.8,1,0,0,1,0,0,27,0,11.1,0.6,2.02,'Not on time'
4,39,1,9773,1,38,133.1,Basic,Basic,'Manual skilled',Low-skilled,133,0,0,0,1,0,0,40,0,16.2,0.3,-0.92,'Not on time'
4,7,1,9500,1,40,130,Basic,Basic,Clerical/service,'Manual skilled',130,0,0,0,0,0,0,42,0,12.4,0.5,1.79,'Not on time'
1,39,1,9003,1,1,133.1,Secondary,Basic,Clerical/service,'Manual skilled',110,0,0,0,1,1,0,31,0,16.2,0.3,-0.92,'Not on time'
2,39,2,9670,1,1,133.1,Basic,Basic,Low-skilled,Low-skilled,130,0,0,0,1,0,0,30,1,9.4,-0.8,-3.12,'Not on time'
1,7,1,9500,1,3,120,Basic,Higher,Clerical/service,High-skilled,120,1,0,0,1,0,0,29,0,12.7,3.7,-1.7,'Not on time'
1,1,1,171,1,1,133.1,Basic,Basic,Low-skilled,'Manual skilled',128.2,1,0,0,1,1,1,19,0,8.9,1.4,3.51,'Not on time'
1,17,2,9500,1,1,145,Higher,Basic,High-skilled,'Manual skilled',136.3,1,0,0,1,0,0,18,0,12.7,3.7,-1.7,'Not on time'
1,39,1,9085,1,1,133.1,Higher,Basic,High-skilled,Low-skilled,110,0,0,0,1,0,0,28,0,11.1,0.6,2.02,'Not on time'
2,7,1,8014,0,3,120,Basic,Secondary,Low-skilled,Low-skilled,120,0,0,0,0,0,0,35,0,10.8,1.4,1.74,'Not on time'
1,1,2,9670,1,1,143,Basic,Basic,Low-skilled,'Manual skilled',131.8,1,0,0,1,0,1,18,0,12.4,0.5,1.79,'Not on time'
1,44,1,9130,1,39,160,Secondary,Basic,High-skilled,High-skilled,160,1,0,1,0,0,0,36,0,12.4,0.5,1.79,'Not on time'
1,1,1,9500,1,1,145,Secondary,Secondary,Clerical/service,Other/unknown,145,0,0,0,1,0,0,18,0,12.4,0.5,1.79,'Not on time'
1,1,6,9500,1,1,129,Basic,Basic,Low-skilled,'Manual skilled',127.8,1,0,0,1,0,0,19,0,9.4,-0.8,-3.12,'Not on time'
1,43,1,9500,1,1,121,Basic,Basic,Clerical/service,Clerical/service,115.4,1,0,0,1,0,1,24,0,12.7,3.7,-1.7,'Not on time'
4,7,1,9238,1,40,130,Unknown,Unknown,Other/unknown,Other/unknown,130,0,0,1,1,0,0,41,0,11.1,0.6,2.02,'Not on time'
2,39,1,9500,1,19,133.1,Basic,Basic,Low-skilled,Other/unknown,120.9,1,0,0,1,0,0,39,0,11.1,0.6,2.02,'Not on time'
1,1,3,9500,1,1,131,Basic,Basic,Low-skilled,Low-skilled,118,1,0,0,1,0,1,18,0,12.7,3.7,-1.7,'Not on time'
1,18,1,9991,0,1,133.1,Basic,Basic,Clerical/service,Clerical/service,145,0,0,0,1,0,1,21,0,10.8,1.4,1.74,'Not on time'
1,39,1,9085,1,1,133.1,Basic,Basic,Low-skilled,Low-skilled,148.2,1,0,1,1,0,0,27,0,12.4,0.5,1.79,'Not on time'
1,17,2,9085,1,1,138,Basic,Basic,Low-skilled,'Manual skilled',123.3,1,0,0,1,0,0,19,0,9.4,-0.8,-3.12,'Not on time'
1,5,1,9853,1,1,119,Secondary,Basic,Clerical/service,'Manual skilled',118.3,1,0,0,1,0,0,22,0,9.4,-0.8,-3.12,'Not on time'
1,1,6,9773,1,1,133.1,Secondary,Basic,High-skilled,High-skilled,100,1,0,1,0,0,0,20,0,12.4,0.5,1.79,'Not on time'
2,39,1,9085,1,1,133.1,Basic,Basic,Other/unknown,Clerical/service,128.2,0,0,0,0,0,1,28,0,9.4,-0.8,-3.12,'Not on time'
1,1,4,9500,1,1,127,Basic,Basic,'Manual skilled','Manual skilled',121.5,1,0,0,1,1,0,20,0,7.6,2.6,0.32,'Not on time'
1,1,1,171,1,1,150,Higher,Higher,High-skilled,Clerical/service,154.6,1,0,0,1,0,0,19,0,8.9,1.4,3.51,'Not on time'
1,1,1,9147,1,1,112,Secondary,Secondary,Clerical/service,High-skilled,106.1,0,0,0,1,0,0,20,0,9.4,-0.8,-3.12,'Not on time'
1,1,1,9773,1,1,134,Basic,Basic,Low-skilled,Other/unknown,141.4,1,0,0,1,0,0,19,0,9.4,-0.8,-3.12,'Not on time'
1,1,2,9991,0,1,143,Higher,Secondary,Clerical/service,Clerical/service,131.5,0,0,0,1,1,0,19,0,15.5,2.8,-4.06,'Not on time'
1,17,1,9119,1,1,141,Basic,Secondary,Low-skilled,High-skilled,133,1,0,0,1,1,0,18,0,7.6,2.6,0.32,'Not on time'
1,1,1,9085,1,1,133.1,Higher,Secondary,Clerical/service,Low-skilled,105,1,0,0,1,1,0,21,0,12.4,0.5,1.79,'Not on time'
1,44,1,9003,1,39,130,Secondary,Higher,Low-skilled,High-skilled,130,1,0,1,0,1,0,23,0,13.9,-0.3,0.79,'Not on time'
1,43,1,171,1,39,140,Basic,Basic,Low-skilled,'Manual skilled',140,0,0,0,0,1,0,25,0,15.5,2.8,-4.06,'Not on time'
1,42,1,9147,1,1,135,Basic,Secondary,Clerical/service,Clerical/service,120,0,0,0,0,1,0,25,0,15.5,2.8,-4.06,'Not on time'
1,17,1,9119,1,1,132,Basic,Basic,Low-skilled,'Manual skilled',119.4,1,0,0,1,1,0,21,0,7.6,2.6,0.32,'Not on time'
1,39,1,9991,0,19,133.1,Basic,Basic,Low-skilled,'Manual skilled',105.3,0,0,1,1,0,0,28,0,12.4,0.5,1.79,'Not on time'
1,17,1,171,1,1,145,Basic,Basic,Clerical/service,Low-skilled,130,1,0,0,1,0,0,23,0,11.1,0.6,2.02,'Not on time'
1,39,1,9670,1,1,120,Unknown,Unknown,Other/unknown,Other/unknown,104,1,0,0,1,0,0,24,0,7.6,2.6,0.32,'Not on time'
1,1,6,9853,1,1,140,Basic,Basic,Low-skilled,'Manual skilled',137.6,1,0,0,1,0,0,18,0,10.8,1.4,1.74,'Not on time'
1,17,3,9853,1,1,133.1,Unknown,Unknown,Other/unknown,Other/unknown,115,0,0,0,1,0,0,18,0,7.6,2.6,0.32,'Not on time'
1,1,1,9238,1,1,124,Basic,Basic,'Manual skilled',Low-skilled,121.2,0,0,0,1,0,0,19,0,7.6,2.6,0.32,'Not on time'
1,1,2,9238,1,1,145,Secondary,Basic,Clerical/service,'Manual skilled',121.4,0,0,0,1,0,0,20,0,9.4,-0.8,-3.12,'Not on time'
2,43,1,9147,1,2,120,Basic,Basic,Low-skilled,Low-skilled,122.8,0,0,1,0,0,0,42,0,15.5,2.8,-4.06,'Not on time'
2,39,1,9991,0,1,133.1,Basic,Basic,'Manual skilled',High-skilled,140,0,0,1,1,1,0,37,0,9.4,-0.8,-3.12,'Not on time'
2,39,1,9773,1,1,100,Basic,Basic,Low-skilled,Low-skilled,133,0,0,0,1,1,0,47,0,12.7,3.7,-1.7,'Not on time'
1,1,2,9773,1,1,120,Secondary,Secondary,Low-skilled,Low-skilled,119,1,0,1,0,0,0,18,1,11.1,0.6,2.02,'Not on time'
1,7,1,9773,1,43,140,Basic,Secondary,Clerical/service,'Manual skilled',140,0,0,0,1,1,0,25,0,11.1,0.6,2.02,Graduate
1,1,1,9238,1,1,154,Secondary,Higher,Clerical/service,High-skilled,164.9,0,0,0,1,0,0,18,0,10.8,1.4,1.74,Graduate
1,17,4,9070,1,1,126,Secondary,Basic,Clerical/service,Clerical/service,120.4,1,0,0,1,0,0,18,0,16.2,0.3,-0.92,Graduate
1,1,6,9500,1,1,133,Basic,Basic,Low-skilled,Low-skilled,128.8,1,0,0,1,0,1,18,0,15.5,2.8,-4.06,Graduate
1,1,6,9500,1,1,141,Higher,Secondary,Clerical/service,Clerical/service,136.3,1,0,0,1,0,0,19,0,10.8,1.4,1.74,Graduate
1,17,4,9500,1,1,133,Basic,Basic,Clerical/service,'Manual skilled',126.4,1,0,0,1,1,1,18,0,11.1,0.6,2.02,Graduate
1,1,2,9500,1,1,142,Basic,Basic,Low-skilled,'Manual skilled',132.7,1,0,0,1,0,1,19,0,13.9,-0.3,0.79,Graduate
1,1,4,9773,1,1,155,Higher,Basic,High-skilled,Clerical/service,149.8,1,0,0,1,0,1,18,0,16.2,0.3,-0.92,Graduate
1,1,1,9500,1,1,149,Basic,Secondary,Clerical/service,Clerical/service,134.8,0,0,0,1,0,0,18,0,9.4,-0.8,-3.12,Graduate
1,1,1,9147,1,1,130,Basic,Basic,High-skilled,High-skilled,123,0,0,0,1,0,0,18,0,15.5,2.8,-4.06,Graduate
1,17,3,9500,1,1,132,Basic,Basic,Low-skilled,'Manual skilled',128.3,1,0,0,1,0,1,19,0,15.5,2.8,-4.06,Graduate
1,1,3,9500,1,1,128,Basic,Basic,Clerical/service,Clerical/service,118.6,1,0,0,1,0,1,19,0,13.9,-0.3,0.79,Graduate
1,1,2,9500,1,1,112,Secondary,Basic,Clerical/service,Low-skilled,106.8,1,0,0,1,0,1,19,0,12.4,0.5,1.79,Graduate
1,43,1,9238,1,39,120,Higher,Secondary,High-skilled,High-skilled,118.6,0,0,0,1,1,0,21,0,13.9,-0.3,0.79,Graduate
1,1,2,9500,1,1,131,Basic,Secondary,'Manual skilled',Clerical/service,128.3,1,0,0,1,0,1,18,0,12.7,3.7,-1.7,Graduate
1,1,1,9773,1,1,127,Basic,Basic,Low-skilled,Low-skilled,126.3,0,0,0,1,1,0,19,0,15.5,2.8,-4.06,Graduate
1,1,1,9238,1,1,124,Secondary,Secondary,Clerical/service,Clerical/service,118.8,0,0,0,1,1,0,19,0,9.4,-0.8,-3.12,Graduate
1,17,1,9070,1,1,126,Basic,Basic,Low-skilled,'Manual skilled',118.7,0,0,0,1,0,0,18,0,16.2,0.3,-0.92,Graduate
1,43,1,9773,1,1,122,Secondary,Secondary,Clerical/service,Clerical/service,126.9,0,0,0,1,0,0,21,0,7.6,2.6,0.32,Graduate
1,44,1,9130,1,39,150,Basic,Basic,'Manual skilled','Manual skilled',150,1,0,0,1,1,0,22,0,10.8,1.4,1.74,Graduate
1,1,2,9500,1,1,135,Basic,Secondary,'Manual skilled','Manual skilled',132.8,1,0,0,1,0,1,18,0,12.7,3.7,-1.7,Graduate
1,17,4,9085,1,1,138,Basic,Basic,Other/unknown,'Manual skilled',134.9,1,0,0,1,0,0,20,0,7.6,2.6,0.32,Graduate
1,1,1,171,1,1,170,Basic,Basic,Low-skilled,High-skilled,160.6,1,0,0,1,1,1,18,0,12.7,3.7,-1.7,Graduate
1,1,1,9147,1,1,133,Basic,Basic,'Manual skilled','Manual skilled',147,0,0,0,1,0,1,18,0,9.4,-0.8,-3.12,Graduate
1,17,1,9500,1,1,127,Basic,Basic,Clerical/service,Low-skilled,129.5,1,0,0,1,0,1,20,0,7.6,2.6,0.32,Graduate
1,17,2,9991,0,1,116,Basic,Basic,Low-skilled,Clerical/service,118.5,0,0,0,1,1,0,23,0,7.6,2.6,0.32,Graduate
1,1,1,9773,1,1,152,Basic,Basic,Low-skilled,Low-skilled,139.1,0,0,0,1,0,1,19,0,16.2,0.3,-0.92,Graduate
1,17,1,9670,1,1,125,Basic,Basic,Low-skilled,Low-skilled,121.5,1,0,0,1,1,1,21,0,12.7,3.7,-1.7,Graduate
1,39,1,9003,1,1,140,Higher,Higher,High-skilled,High-skilled,110,0,0,0,1,1,0,31,0,16.2,0.3,-0.92,Graduate
1,1,3,9500,1,1,145,Basic,Basic,'Manual skilled','Manual skilled',141.5,1,0,0,1,0,1,18,0,9.4,-0.8,-3.12,Graduate
1,1,1,9500,1,1,145,Basic,Secondary,Low-skilled,Clerical/service,145,0,0,0,1,0,1,18,0,13.9,-0.3,0.79,Graduate
2,7,1,9991,0,43,140,Higher,Higher,High-skilled,High-skilled,140,0,0,0,1,0,0,33,0,11.1,0.6,2.02,Graduate
2,39,1,9003,1,1,120,Basic,Basic,Low-skilled,Clerical/service,148.8,0,0,0,1,0,0,50,0,8.9,1.4,3.51,Graduate
1,1,1,9853,1,1,152,Basic,Basic,Low-skilled,Clerical/service,154.1,0,0,1,1,0,1,18,0,12.7,3.7,-1.7,Graduate
1,17,2,9773,1,1,122,Basic,Basic,Clerical/service,High-skilled,119.6,1,0,0,1,0,0,20,0,9.4,-0.8,-3.12,Graduate
1,17,1,9130,1,1,130,Higher,Basic,High-skilled,Low-skilled,115.9,0,0,0,1,0,0,18,0,9.4,-0.8,-3.12,Graduate
1,17,2,9773,1,1,131,Higher,Basic,High-skilled,High-skilled,132.8,1,0,0,1,1,0,19,0,13.9,-0.3,0.79,Graduate
1,1,1,9500,1,1,130,Basic,Basic,Clerical/service,Other/unknown,117.8,1,0,0,1,1,0,19,0,10.8,1.4,1.74,Graduate
1,1,1,9147,1,1,121,Basic,Basic,High-skilled,Low-skilled,112.6,1,0,0,1,0,1,20,0,11.1,0.6,2.02,Graduate
2,39,2,8014,0,1,100,Unknown,Unknown,Other/unknown,Other/unknown,100,1,0,0,1,0,0,41,0,7.6,2.6,0.32,Graduate
1,53,1,171,1,42,130,Secondary,Basic,Low-skilled,Low-skilled,130,1,0,0,0,1,1,22,0,8.9,1.4,3.51,Graduate
1,1,1,9670,1,1,135,Basic,Basic,Clerical/service,'Manual skilled',121.4,0,0,0,1,1,0,21,0,9.4,-0.8,-3.12,Graduate
1,1,1,9238,1,1,154,Basic,Basic,Low-skilled,Low-skilled,140.4,0,0,0,1,0,1,22,0,10.8,1.4,1.74,Graduate
1,16,2,9238,1,1,130,Basic,Basic,Clerical/service,'Manual skilled',126.9,1,0,0,1,0,0,18,0,9.4,-0.8,-3.12,Graduate
1,18,1,9556,1,1,140,Basic,Basic,Low-skilled,Low-skilled,122.8,0,0,0,1,0,1,19,0,12.7,3.7,-1.7,Graduate
2,39,1,9003,1,3,110,Higher,Basic,Clerical/service,'Manual skilled',150,0,0,0,1,1,0,32,0,16.2,0.3,-0.92,Graduate
1,44,1,9003,1,39,140,Basic,Basic,High-skilled,Low-skilled,140,1,0,0,1,1,0,21,0,12.4,0.5,1.79,Graduate
1,1,6,9500,1,1,139,Secondary,Secondary,Clerical/service,Clerical/service,124.5,1,0,0,1,0,0,19,0,10.8,1.4,1.74,Graduate
2,39,1,9003,1,1,130,Basic,Basic,Low-skilled,Low-skilled,144,0,0,0,1,0,0,29,0,15.5,2.8,-4.06,Graduate
1,1,1,9238,1,1,147,Secondary,Basic,Clerical/service,Clerical/service,137.2,0,0,0,0,0,0,18,0,10.8,1.4,1.74,Graduate
1,1,6,9238,1,1,113,Secondary,Basic,Low-skilled,'Manual skilled',112.3,1,0,1,1,0,1,20,0,8.9,1.4,3.51,Graduate
1,1,2,9147,1,1,118,Basic,Basic,Clerical/service,Clerical/service,119.1,1,0,0,1,0,1,20,0,12.4,0.5,1.79,Graduate
1,1,1,9500,1,1,128,Secondary,Basic,Clerical/service,'Manual skilled',125.6,1,0,0,1,1,0,18,0,12.4,0.5,1.79,Graduate
1,53,1,9003,1,42,130,Secondary,Basic,Low-skilled,'Manual skilled',128.5,0,0,0,1,1,0,21,0,8.9,1.4,3.51,Graduate
1,17,4,9238,1,1,124,Basic,Basic,Clerical/service,'Manual skilled',117.7,1,0,0,1,0,0,18,0,16.2,0.3,-0.92,Graduate
2,39,1,9003,1,1,133.1,Basic,Basic,'Manual skilled','Manual skilled',150,0,0,0,1,1,0,31,0,13.9,-0.3,0.79,Graduate
1,17,3,9500,1,1,129,Basic,Basic,'Manual skilled','Manual skilled',120,1,0,0,1,0,1,19,0,10.8,1.4,1.74,Graduate
2,39,1,9500,1,1,133.1,Higher,Secondary,Clerical/service,Clerical/service,148.8,0,0,0,1,0,1,34,0,12.4,0.5,1.79,Graduate
1,17,1,171,1,1,114,Basic,Basic,Low-skilled,'Manual skilled',129.1,0,0,0,1,1,1,23,0,9.4,-0.8,-3.12,Graduate
1,10,2,9085,1,1,163.3,Basic,Secondary,Clerical/service,Low-skilled,163.3,0,0,0,1,0,0,18,1,12.4,0.5,1.79,Graduate
1,17,1,9254,1,1,142,Basic,Secondary,Clerical/service,Clerical/service,141.7,0,0,0,1,0,1,18,0,13.9,-0.3,0.79,Graduate
1,17,1,9238,1,1,145,Basic,Basic,Clerical/service,'Manual skilled',138,1,0,0,1,0,0,20,0,9.4,-0.8,-3.12,Graduate
1,17,2,9773,1,1,148,Higher,Basic,High-skilled,'Manual skilled',144.2,1,0,0,1,0,0,18,0,12.4,0.5,1.79,Graduate
1,1,1,9238,1,1,120,Basic,Basic,Clerical/service,'Manual skilled',112.3,0,0,0,1,0,1,22,0,12.7,3.7,-1.7,Graduate
1,15,1,9670,1,1,130,Higher,Secondary,High-skilled,'Manual skilled',130,0,1,1,1,0,0,20,1,8.9,1.4,3.51,Graduate
1,1,1,9670,1,1,136,Basic,Secondary,Low-skilled,'Manual skilled',123.4,1,0,0,1,0,1,18,0,11.1,0.6,2.02,Graduate
1,1,2,9773,1,1,130,Basic,Basic,Low-skilled,Low-skilled,126.9,1,0,0,1,1,1,18,0,9.4,-0.8,-3.12,Graduate
1,1,2,9085,1,1,140,Basic,Basic,Low-skilled,'Manual skilled',137,0,0,0,1,0,0,18,0,9.4,-0.8,-3.12,Graduate
1,42,1,9085,1,39,140,Basic,Higher,Low-skilled,High-skilled,159.9,1,0,0,1,0,0,21,0,16.2,0.3,-0.92,Graduate
1,1,1,9238,1,1,128,Basic,Basic,Low-skilled,Low-skilled,120,0,0,0,1,0,1,18,0,11.1,0.6,2.02,Graduate
1,1,1,9130,1,1,132,Basic,Basic,Low-skilled,Low-skilled,130.4,1,0,0,1,1,0,18,0,8.9,1.4,3.51,Graduate
1,1,4,9500,1,1,138,Basic,Basic,Low-skilled,Low-skilled,127.8,1,0,0,1,0,0,19,0,7.6,2.6,0.32,Graduate
1,17,4,9500,1,1,146,Basic,Basic,Clerical/service,'Manual skilled',135.8,1,0,0,1,0,0,18,0,7.6,2.6,0.32,Graduate
1,17,3,9670,1,1,123,Basic,Basic,'Manual skilled','Manual skilled',118.8,1,1,0,1,0,1,18,0,11.1,0.6,2.02,Graduate
1,1,1,9500,1,1,136,Basic,Basic,Low-skilled,Low-skilled,119.3,1,0,0,1,0,1,18,0,12.7,3.7,-1.7,Graduate
1,1,1,9085,1,1,143,Basic,Basic,Low-skilled,Low-skilled,133.4,1,0,0,1,0,0,19,0,12.4,0.5,1.79,Graduate
2,39,1,9853,1,1,130,Basic,Basic,'Manual skilled',High-skilled,140,0,0,1,1,0,1,34,0,9.4,-0.8,-3.12,Graduate
1,17,2,9500,1,1,127,Basic,Basic,Low-skilled,'Manual skilled',121.3,1,0,0,1,0,1,20,0,10.8,1.4,1.74,Graduate
1,17,4,9254,1,1,125,Basic,Basic,Clerical/service,Clerical/service,115.6,1,0,0,1,0,0,20,0,9.4,-0.8,-3.12,Graduate
1,43,1,9147,1,1,131,Basic,Basic,Low-skilled,Low-skilled,129.7,1,0,0,1,0,0,19,0,16.2,0.3,-0.92,Graduate
1,17,2,9254,1,1,136,Basic,Basic,Clerical/service,'Manual skilled',123.1,1,0,0,1,0,0,19,0,11.1,0.6,2.02,Graduate
1,43,4,171,1,1,117,Basic,Secondary,Low-skilled,Other/unknown,109.3,0,0,0,1,1,0,19,0,9.4,-0.8,-3.12,Graduate
1,1,3,9773,1,1,143,Basic,Basic,Clerical/service,Low-skilled,133.9,1,0,0,1,1,1,18,1,16.2,0.3,-0.92,Graduate
1,1,4,9500,1,1,128,Basic,Secondary,Clerical/service,Clerical/service,124.3,1,0,0,1,1,0,19,0,10.8,1.4,1.74,Graduate
1,17,1,9147,1,1,127,Basic,Basic,Low-skilled,'Manual skilled',115.8,1,0,0,1,1,0,18,0,11.1,0.6,2.02,Graduate
1,1,1,9500,1,1,110,Basic,Basic,Low-skilled,'Manual skilled',105.8,1,0,0,1,1,0,22,0,11.1,0.6,2.02,Graduate
1,17,5,9119,1,1,124,Higher,Secondary,High-skilled,Low-skilled,119.5,1,0,0,1,1,0,20,1,8.9,1.4,3.51,Graduate
1,17,1,9254,1,1,102,Basic,Basic,'Manual skilled','Manual skilled',102,0,0,0,1,0,0,19,0,10.8,1.4,1.74,Graduate
1,1,1,9147,1,1,143,Secondary,Basic,High-skilled,High-skilled,133.9,0,0,0,1,0,1,18,0,12.7,3.7,-1.7,Graduate
1,51,1,9670,1,1,126,Higher,Higher,High-skilled,Other/unknown,111,0,0,1,1,1,0,21,0,11.1,0.6,2.02,Graduate
1,53,1,9003,1,42,150,Secondary,Basic,'Manual skilled','Manual skilled',150,0,0,0,1,0,1,23,0,8.9,1.4,3.51,Graduate
1,53,1,9147,1,42,130,Secondary,Basic,Clerical/service,'Manual skilled',133.8,1,0,0,1,0,0,21,0,8.9,1.4,3.51,Graduate
1,1,3,9254,1,1,122,Basic,Basic,Low-skilled,High-skilled,124.5,1,0,0,1,0,0,19,0,7.6,2.6,0.32,Graduate
1,17,1,9085,1,1,133.1,Secondary,Basic,Clerical/service,Low-skilled,130,0,0,0,1,1,0,22,0,7.6,2.6,0.32,Graduate
1,1,5,9238,1,3,135,Secondary,Basic,Low-skilled,High-skilled,129.4,0,0,1,1,0,0,18,0,10.8,1.4,1.74,Graduate
1,1,1,9003,1,1,140,Basic,Secondary,Low-skilled,Clerical/service,138.3,0,0,0,1,1,0,18,0,12.4,0.5,1.79,Graduate
1,1,2,9773,1,1,154,Basic,Basic,Low-skilled,Low-skilled,133.4,1,0,0,1,0,1,19,0,12.7,3.7,-1.7,Graduate
1,17,3,9556,1,1,131,Basic,Basic,Low-skilled,'Manual skilled',128.5,0,0,0,1,0,1,18,0,12.7,3.7,-1.7,Graduate
1,5,3,9070,1,1,157,Higher,Secondary,Low-skilled,'Manual skilled',138.1,1,0,0,1,0,0,18,0,10.8,1.4,1.74,Graduate
1,43,1,9130,1,1,150,Higher,Higher,High-skilled,Clerical/service,150,1,0,0,1,0,0,21,0,13.9,-0.3,0.79,Graduate
1,1,1,9500,1,1,138,Secondary,Secondary,High-skilled,Clerical/service,132.5,1,0,0,1,0,0,18,0,10.8,1.4,1.74,Graduate
1,1,5,9773,1,1,138,Basic,Basic,Low-skilled,Low-skilled,139.4,1,0,0,1,0,0,18,0,10.8,1.4,1.74,Graduate
1,1,1,9853,1,1,133,Basic,Basic,Low-skilled,'Manual skilled',124.6,1,0,0,1,0,1,18,0,9.4,-0.8,-3.12,Graduate
1,1,3,9085,1,1,138,Secondary,Higher,Clerical/service,Clerical/service,126.3,1,0,0,1,0,0,18,0,8.9,1.4,3.51,Graduate
1,17,2,9147,1,1,146,Basic,Basic,'Manual skilled','Manual skilled',143.9,0,0,0,1,0,0,18,0,13.9,-0.3,0.79,Graduate
1,1,1,9238,1,1,133.1,Secondary,Secondary,High-skilled,High-skilled,102,1,0,0,1,0,1,20,0,11.1,0.6,2.02,Graduate
1,1,1,171,1,1,142,Secondary,Secondary,High-skilled,High-skilled,133.3,1,0,0,1,0,0,19,0,10.8,1.4,1.74,Graduate
1,43,1,9991,0,1,120,Basic,Basic,Low-skilled,'Manual skilled',141,0,0,0,1,1,1,32,0,10.8,1.4,1.74,Graduate
2,1,1,8014,0,1,150,Secondary,Basic,Clerical/service,'Manual skilled',139.9,1,0,0,1,0,0,24,0,9.4,-0.8,-3.12,Graduate
1,43,1,8014,0,3,133.1,Secondary,Secondary,Other/unknown,Other/unknown,130,0,0,0,1,0,0,26,0,7.6,2.6,0.32,Graduate
1,17,1,9147,1,1,124,Basic,Basic,'Manual skilled',Other/unknown,126.8,1,0,0,1,0,0,20,0,15.5,2.8,-4.06,Graduate
1,42,3,9500,1,1,136,Secondary,Secondary,Clerical/service,Clerical/service,148.8,1,0,0,1,0,1,19,0,9.4,-0.8,-3.12,Graduate
1,7,0,9003,1,3,130,Secondary,Basic,Clerical/service,Low-skilled,130,1,0,0,1,0,0,23,0,15.5,2.8,-4.06,Graduate
1,1,1,9500,1,1,129,Secondary,Secondary,Low-skilled,Low-skilled,120,0,0,0,1,1,0,20,0,12.7,3.7,-1.7,Graduate
1,1,3,171,1,1,139,Basic,Basic,Clerical/service,High-skilled,128.2,1,0,0,1,1,1,19,0,10.8,1.4,1.74,Graduate
1,1,1,171,1,1,168,Basic,Basic,Low-skilled,'Manual skilled',155.1,1,0,1,0,1,1,18,0,12.7,3.7,-1.7,Graduate
1,42,1,9500,1,1,150,Basic,Secondary,Low-skilled,High-skilled,110,1,0,0,1,1,1,33,0,9.4,-0.8,-3.12,Graduate
1,1,3,9085,1,1,147,Basic,Basic,Low-skilled,High-skilled,135.6,1,0,0,1,0,0,20,0,13.9,-0.3,0.79,Graduate
1,1,1,9773,1,1,123,Secondary,Basic,Low-skilled,Low-skilled,116.7,0,0,0,1,0,1,18,0,12.4,0.5,1.79,Graduate
1,1,1,9238,1,1,145,Secondary,Basic,Low-skilled,Low-skilled,129.3,0,0,1,1,0,1,19,0,10.8,1.4,1.74,Graduate
2,7,1,8014,0,3,124.4,Basic,Unknown,Other/unknown,Other/unknown,130,0,0,0,1,0,0,30,0,7.6,2.6,0.32,Graduate
1,1,3,9147,1,1,133,Basic,Basic,Low-skilled,Clerical/service,119.7,1,0,0,1,1,0,19,0,13.9,-0.3,0.79,Graduate
1,1,2,9500,1,1,140,Secondary,Secondary,High-skilled,'Manual skilled',131,1,0,0,1,0,1,18,0,9.4,-0.8,-3.12,Graduate
1,17,5,9773,1,1,113,Basic,Basic,Low-skilled,'Manual skilled',110.2,1,0,1,1,0,0,19,0,8.9,1.4,3.51,Graduate
1,44,1,9070,1,39,150,Secondary,Basic,High-skilled,Low-skilled,147.7,0,0,1,1,0,1,22,0,12.4,0.5,1.79,Graduate
1,17,1,9853,1,1,141,Basic,Basic,Low-skilled,'Manual skilled',142.8,0,0,0,1,0,1,19,0,16.2,0.3,-0.92,Graduate
1,17,5,9500,1,1,143,Basic,Secondary,Low-skilled,'Manual skilled',130.6,1,0,0,1,0,1,18,0,13.9,-0.3,0.79,Graduate
1,18,3,9070,1,1,164,Secondary,Secondary,Clerical/service,High-skilled,161.2,1,0,0,1,0,0,18,0,13.9,-0.3,0.79,Graduate
1,1,2,9670,1,1,160,Higher,Secondary,Clerical/service,Clerical/service,137.3,1,0,0,1,0,0,19,0,12.7,3.7,-1.7,Graduate
1,43,1,9853,1,1,140,Basic,Basic,'Manual skilled','Manual skilled',125.2,0,0,1,1,0,0,41,0,12.4,0.5,1.79,Graduate
1,16,2,9238,1,1,122,Basic,Basic,Low-skilled,'Manual skilled',127.3,1,0,0,1,0,1,19,0,10.8,1.4,1.74,Graduate
5,42,1,9254,1,2,120,Basic,Basic,Clerical/service,Low-skilled,120,0,0,0,1,0,0,32,0,10.8,1.4,1.74,Graduate
1,17,4,9147,1,1,122,Basic,Basic,Clerical/service,'Manual skilled',116.4,1,0,1,1,0,1,18,0,11.1,0.6,2.02,Graduate
2,39,1,8014,0,1,140,Basic,Basic,Low-skilled,Low-skilled,128,0,0,0,1,0,1,43,0,8.9,1.4,3.51,Graduate
1,17,1,9238,1,1,131,Basic,Basic,Low-skilled,'Manual skilled',121.9,0,0,0,1,0,1,19,0,16.2,0.3,-0.92,Graduate
1,1,1,9254,1,1,129,Basic,Basic,'Manual skilled','Manual skilled',118.5,1,0,0,1,0,0,18,0,7.6,2.6,0.32,Graduate
1,18,6,9500,1,1,140,Higher,Basic,High-skilled,'Manual skilled',129,1,0,0,1,0,0,21,0,12.7,3.7,-1.7,Graduate
1,17,1,9238,1,1,116,Secondary,Secondary,High-skilled,High-skilled,119.2,1,0,0,1,0,1,18,0,8.9,1.4,3.51,Graduate
1,43,1,9085,1,1,130,Basic,Basic,Other/unknown,Other/unknown,125.1,0,0,0,1,0,0,21,0,7.6,2.6,0.32,Graduate
1,1,2,9238,1,1,136,Secondary,Basic,Other/unknown,'Manual skilled',135.7,1,0,0,1,0,0,19,0,7.6,2.6,0.32,Graduate
1,16,3,9070,1,1,152,Secondary,Basic,Clerical/service,'Manual skilled',156.9,1,0,0,1,0,0,19,0,12.7,3.7,-1.7,Graduate
2,39,1,8014,0,1,140,Basic,Basic,Low-skilled,Low-skilled,101,0,0,0,1,0,0,35,0,15.5,2.8,-4.06,Graduate
1,18,1,9670,1,1,133,Secondary,Secondary,Low-skilled,Low-skilled,121.5,1,0,0,1,0,1,19,0,12.4,0.5,1.79,Graduate
1,1,6,9500,1,1,144,Basic,Basic,Low-skilled,Low-skilled,130.5,1,0,0,1,0,0,18,0,12.7,3.7,-1.7,Graduate
1,44,1,9238,1,39,130,Basic,Basic,'Manual skilled',Low-skilled,126.3,1,0,0,1,0,1,19,0,13.9,-0.3,0.79,Graduate
1,39,1,9003,1,1,130,Basic,Basic,Low-skilled,High-skilled,140,0,0,0,1,0,0,26,0,15.5,2.8,-4.06,Graduate
1,1,6,9853,1,1,136,Secondary,Basic,Clerical/service,Clerical/service,122,0,0,0,1,0,0,18,0,7.6,2.6,0.32,Graduate
1,51,1,8014,0,1,121,Secondary,Basic,Clerical/service,'Manual skilled',112.3,0,0,0,1,0,0,22,0,16.2,0.3,-0.92,Graduate
2,1,1,9500,1,1,137,Higher,Basic,High-skilled,Clerical/service,121,0,0,0,1,0,1,19,0,10.8,1.4,1.74,Graduate
2,1,1,9991,0,3,160,Secondary,Higher,Clerical/service,Low-skilled,137.3,0,0,0,1,0,0,23,0,9.4,-0.8,-3.12,Graduate
1,39,2,8014,0,1,100,Basic,Basic,Other/unknown,Other/unknown,100,0,0,0,1,0,0,41,0,7.6,2.6,0.32,Graduate
1,16,6,9147,1,1,128,Basic,Basic,Low-skilled,Low-skilled,116.5,1,0,0,1,0,0,20,0,7.6,2.6,0.32,Graduate
1,1,3,9070,1,1,129,Higher,Higher,Clerical/service,'Manual skilled',124.8,1,0,0,1,0,0,21,0,12.4,0.5,1.79,Graduate
1,7,1,9853,1,3,150,Basic,Basic,Clerical/service,Clerical/service,150,0,0,1,0,0,0,25,0,10.8,1.4,1.74,Graduate
1,17,1,171,1,1,158,Higher,Higher,High-skilled,High-skilled,151.4,1,0,0,0,0,0,19,0,8.9,1.4,3.51,Graduate
2,39,1,8014,0,1,140,Basic,Basic,Clerical/service,'Manual skilled',128.5,0,0,0,1,0,1,38,0,9.4,-0.8,-3.12,Graduate
1,1,1,9130,1,1,130,Higher,Basic,Clerical/service,'Manual skilled',133,1,0,0,1,0,0,19,0,12.4,0.5,1.79,Graduate
1,17,1,9773,1,1,130,Basic,Basic,Clerical/service,Low-skilled,126.2,0,0,0,1,1,1,18,0,16.2,0.3,-0.92,Graduate
1,1,4,9500,1,1,135,Secondary,Basic,Low-skilled,'Manual skilled',123.5,1,0,0,1,0,1,19,0,12.4,0.5,1.79,Graduate
1,17,1,9670,1,1,132,Secondary,Secondary,High-skilled,High-skilled,119.4,1,0,0,1,0,1,18,0,8.9,1.4,3.51,Graduate
1,16,2,9085,1,1,136,Basic,Basic,Low-skilled,Low-skilled,123.4,1,0,0,1,0,1,19,0,9.4,-0.8,-3.12,Graduate
1,1,2,171,1,1,152,Basic,Basic,Low-skilled,Low-skilled,151.7,1,0,0,1,0,1,24,0,11.1,0.6,2.02,Graduate
1,39,1,8014,0,1,130,Basic,Basic,Low-skilled,'Manual skilled',134,0,0,0,1,0,1,35,0,8.9,1.4,3.51,Graduate
1,5,2,9238,1,1,123,Higher,Basic,High-skilled,Low-skilled,118.1,1,0,0,1,0,0,19,0,8.9,1.4,3.51,Graduate
1,1,1,9773,1,1,122,Basic,Basic,Low-skilled,Low-skilled,126.6,1,0,0,1,0,0,18,0,8.9,1.4,3.51,Graduate
1,1,1,9070,1,1,131,Higher,Higher,High-skilled,High-skilled,135.9,0,0,0,1,0,1,21,0,13.9,-0.3,0.79,Graduate
1,1,1,9147,1,1,130,Secondary,Basic,High-skilled,High-skilled,123,0,0,0,1,0,1,18,0,12.7,3.7,-1.7,Graduate
1,17,6,9119,1,1,124,Basic,Basic,Clerical/service,Other/unknown,126.1,1,0,0,1,1,0,20,0,7.6,2.6,0.32,Graduate
1,1,4,9500,1,1,133,Basic,Basic,'Manual skilled','Manual skilled',127.3,1,0,0,1,0,0,18,0,12.7,3.7,-1.7,Graduate
1,39,1,9773,1,19,133.1,Basic,Basic,'Manual skilled','Manual skilled',104,0,0,1,0,0,1,24,0,11.1,0.6,2.02,Graduate
1,39,1,9556,1,1,140,Basic,Basic,Low-skilled,'Manual skilled',105,1,0,0,1,0,1,36,0,8.9,1.4,3.51,Graduate
1,1,4,9147,1,1,126,Secondary,Basic,Clerical/service,'Manual skilled',120.1,1,0,0,1,0,0,19,0,8.9,1.4,3.51,Graduate
1,1,1,9670,1,1,129,Secondary,Basic,Clerical/service,Low-skilled,118.2,0,0,0,1,1,0,19,0,9.4,-0.8,-3.12,Graduate
1,1,1,171,1,1,134,Basic,Basic,'Manual skilled','Manual skilled',136.1,1,0,0,1,1,0,19,0,9.4,-0.8,-3.12,Graduate
5,39,1,9500,1,3,140,Basic,Basic,Low-skilled,Low-skilled,160,0,0,0,1,0,0,27,0,12.7,3.7,-1.7,Graduate
1,43,1,9500,1,1,148,Basic,Basic,Other/unknown,High-skilled,131,1,0,0,1,0,1,22,0,7.6,2.6,0.32,Graduate
1,10,1,9254,1,1,115,Higher,Secondary,Low-skilled,Low-skilled,116.1,1,0,0,1,0,0,19,1,12.4,0.5,1.79,Graduate
2,43,1,9003,1,1,133.1,Basic,Basic,Low-skilled,'Manual skilled',136,0,0,0,1,1,0,41,0,15.5,2.8,-4.06,Graduate
1,1,3,9085,1,1,142,Basic,Basic,Other/unknown,Other/unknown,155.3,0,0,0,1,0,0,19,0,7.6,2.6,0.32,Graduate
2,39,1,9991,0,1,133.1,Basic,Basic,Low-skilled,Low-skilled,168,0,0,0,1,1,0,29,0,11.1,0.6,2.02,Graduate
1,17,1,9254,1,1,111,Basic,Basic,High-skilled,Other/unknown,117.7,0,0,0,1,0,0,20,0,9.4,-0.8,-3.12,Graduate
1,1,1,9500,1,1,147,Basic,Basic,Low-skilled,Low-skilled,142,1,0,0,1,0,0,18,0,7.6,2.6,0.32,Graduate
1,1,6,9147,1,1,115,Secondary,Basic,Clerical/service,Low-skilled,117.1,1,0,1,1,0,0,22,0,7.6,2.6,0.32,Graduate
1,39,1,9119,1,1,120,Basic,Basic,Low-skilled,Low-skilled,98.7,0,0,0,1,1,1,28,0,12.4,0.5,1.79,Graduate
1,1,1,9773,1,1,136,Basic,Basic,Clerical/service,High-skilled,126.2,0,0,0,1,0,0,19,0,16.2,0.3,-0.92,Graduate
1,17,1,9500,1,1,150,Basic,Basic,Low-skilled,Low-skilled,130.3,0,0,0,1,0,1,19,0,12.7,3.7,-1.7,Graduate
2,15,1,9773,1,1,133.1,Basic,Basic,Low-skilled,'Manual skilled',100,0,0,0,1,0,0,59,1,11.1,0.6,2.02,Graduate
1,1,1,171,1,1,156,Higher,Higher,High-skilled,High-skilled,147.7,1,0,0,1,0,0,21,0,8.9,1.4,3.51,Graduate
1,39,1,9238,1,12,100,Basic,Basic,Low-skilled,Low-skilled,124.3,0,0,0,1,1,0,47,0,10.8,1.4,1.74,Graduate
1,1,1,9238,1,1,142,Secondary,Basic,Clerical/service,'Manual skilled',127.7,0,0,0,1,0,1,20,0,13.9,-0.3,0.79,Graduate
2,39,1,9254,1,1,120,Secondary,Basic,Low-skilled,Low-skilled,148.3,0,0,0,1,1,0,47,0,10.8,1.4,1.74,Graduate
1,39,1,9556,1,1,133.1,Basic,Basic,Low-skilled,'Manual skilled',100,1,0,0,1,0,1,25,0,8.9,1.4,3.51,Graduate
1,1,1,9500,1,1,143,Higher,Basic,High-skilled,Other/unknown,126.8,0,0,0,1,1,0,19,0,10.8,1.4,1.74,Graduate
2,43,1,8014,0,1,133.1,Unknown,Unknown,Other/unknown,Other/unknown,100,0,0,0,1,0,1,35,0,9.4,-0.8,-3.12,Graduate
1,39,1,8014,0,1,133.1,Basic,Basic,Low-skilled,Low-skilled,112.5,0,0,0,1,0,1,30,0,10.8,1.4,1.74,Graduate
1,1,3,9500,1,1,141,Higher,Basic,High-skilled,Other/unknown,126.8,1,0,0,1,1,0,18,0,9.4,-0.8,-3.12,Graduate
1,1,1,9254,1,1,121,Basic,Basic,Clerical/service,'Manual skilled',117.5,1,0,0,1,0,0,18,0,16.2,0.3,-0.92,Graduate
1,17,5,9500,1,1,144,Basic,Basic,Low-skilled,Clerical/service,130.7,1,0,0,1,0,1,18,0,13.9,-0.3,0.79,Graduate
1,17,1,9500,1,1,150,Basic,Basic,'Manual skilled',Clerical/service,130.8,0,0,0,1,1,0,24,0,13.9,-0.3,0.79,Graduate
1,51,1,9670,1,1,140,Secondary,Higher,High-skilled,High-skilled,126.6,0,0,0,1,1,0,19,0,11.1,0.6,2.02,Graduate
5,7,1,9991,0,2,120,Basic,Basic,'Manual skilled','Manual skilled',120,0,0,0,1,0,0,46,0,8.9,1.4,3.51,Graduate
1,17,5,9853,1,1,132,Basic,Basic,Clerical/service,'Manual skilled',119.1,1,0,0,1,0,1,19,0,9.4,-0.8,-3.12,Graduate
1,1,2,9500,1,1,115,Basic,Basic,Low-skilled,'Manual skilled',108.4,1,0,0,1,0,1,20,0,13.9,-0.3,0.79,Graduate
2,39,2,9147,1,1,130,Basic,Basic,Clerical/service,'Manual skilled',140,0,0,0,1,1,0,34,0,9.4,-0.8,-3.12,Graduate
1,17,4,9500,1,1,135,Secondary,Secondary,Clerical/service,Clerical/service,127,1,0,0,1,0,0,18,0,11.1,0.6,2.02,Graduate
1,1,1,9500,1,1,142,Basic,Basic,'Manual skilled','Manual skilled',133,1,0,0,1,0,1,19,0,9.4,-0.8,-3.12,Graduate
1,17,5,9147,1,1,131,Basic,Basic,Clerical/service,Clerical/service,128.9,0,0,0,1,0,1,18,0,16.2,0.3,-0.92,Graduate
1,44,1,9238,1,39,140,Basic,Basic,'Manual skilled','Manual skilled',143,0,0,0,1,0,0,19,0,13.9,-0.3,0.79,Graduate
1,44,1,9147,1,39,130,Basic,Secondary,Low-skilled,High-skilled,130,0,0,0,1,0,1,20,0,11.1,0.6,2.02,Graduate
1,1,2,9085,1,1,162,Basic,Secondary,Low-skilled,Low-skilled,165.2,1,0,0,1,0,1,18,0,10.8,1.4,1.74,Graduate
1,17,1,9238,1,1,122,Higher,Secondary,Low-skilled,Other/unknown,114.7,0,0,0,1,0,0,19,0,13.9,-0.3,0.79,Graduate
1,1,1,9773,1,1,164,Basic,Secondary,Low-skilled,Low-skilled,161.2,0,0,0,1,1,1,18,0,13.9,-0.3,0.79,Graduate
1,1,4,171,1,1,131,Secondary,Secondary,Other/unknown,High-skilled,149.9,1,0,0,1,1,0,18,0,11.1,0.6,2.02,Graduate
1,1,4,9254,1,1,131,Basic,Basic,Low-skilled,Low-skilled,124,1,0,0,1,0,1,18,0,9.4,-0.8,-3.12,Graduate
1,39,1,9991,0,1,150,Secondary,Basic,Clerical/service,'Manual skilled',120,0,0,0,1,1,0,25,0,9.4,-0.8,-3.12,Graduate
1,1,2,9070,1,1,145,Basic,Basic,'Manual skilled','Manual skilled',130,1,0,0,1,1,0,18,0,8.9,1.4,3.51,Graduate
1,17,1,9238,1,1,133.1,Secondary,Basic,Low-skilled,'Manual skilled',110.5,0,0,0,1,0,0,19,0,16.2,0.3,-0.92,Graduate
1,1,4,9085,1,1,135,Basic,Basic,Low-skilled,Low-skilled,132.6,1,0,0,1,0,1,19,0,10.8,1.4,1.74,Graduate
1,1,6,9500,1,1,140,Basic,Basic,High-skilled,Clerical/service,133.3,1,0,0,1,0,1,17,0,9.4,-0.8,-3.12,Graduate
1,1,1,9500,1,1,136,Secondary,Basic,Low-skilled,Low-skilled,131.5,0,0,0,1,0,1,20,0,11.1,0.6,2.02,Graduate
1,1,1,9085,1,1,126,Basic,Basic,Low-skilled,Low-skilled,123.6,1,0,0,1,0,0,21,0,10.8,1.4,1.74,Graduate
1,17,1,9003,1,1,125,Higher,Higher,High-skilled,High-skilled,100,0,0,0,1,1,0,27,0,15.5,2.8,-4.06,Graduate
2,39,1,9238,1,1,120,Basic,Basic,Low-skilled,Low-skilled,116,0,0,0,1,0,0,44,0,12.7,3.7,-1.7,Graduate
2,39,1,9991,0,12,133.1,Basic,Basic,Low-skilled,Low-skilled,133.8,1,0,0,1,1,0,52,0,7.6,2.6,0.32,Graduate
2,39,1,9130,1,1,130,Secondary,Basic,'Manual skilled','Manual skilled',154,1,0,0,1,1,0,37,0,10.8,1.4,1.74,Graduate
1,1,4,9500,1,1,128,Secondary,Basic,Clerical/service,High-skilled,117.9,1,0,0,1,0,1,19,0,12.4,0.5,1.79,Graduate
1,39,1,9003,1,1,133.1,Basic,Basic,Low-skilled,Clerical/service,120,0,0,0,1,1,0,30,0,13.9,-0.3,0.79,Graduate
1,1,1,9773,1,1,131,Basic,Secondary,Clerical/service,'Manual skilled',131,1,0,0,1,1,1,18,0,13.9,-0.3,0.79,Graduate
1,1,1,9500,1,1,142,Basic,Basic,'Manual skilled',Other/unknown,128.4,1,0,0,1,0,1,18,0,15.5,2.8,-4.06,Graduate
1,1,2,9085,1,1,120,Basic,Secondary,Low-skilled,High-skilled,118.3,1,0,0,1,0,0,20,0,9.4,-0.8,-3.12,Graduate
1,1,1,9853,1,1,137,Basic,Basic,Low-skilled,Low-skilled,132.8,1,0,0,1,0,0,18,0,7.6,2.6,0.32,Graduate
1,17,1,9147,1,1,130,Basic,Basic,Low-skilled,'Manual skilled',119.9,0,0,0,1,0,1,19,0,13.9,-0.3,0.79,Graduate
1,1,1,9500,1,1,150,Basic,Secondary,Clerical/service,Clerical/service,137.8,0,0,0,1,0,0,18,0,15.5,2.8,-4.06,Graduate
1,43,1,9085,1,1,162,Higher,Secondary,Clerical/service,Clerical/service,162,0,0,0,1,0,0,19,0,12.4,0.5,1.79,Graduate
1,1,4,171,1,1,146,Secondary,Secondary,Low-skilled,Clerical/service,151.3,1,0,0,1,0,1,19,0,8.9,1.4,3.51,Graduate
1,1,1,9147,1,1,121,Basic,Basic,Low-skilled,Low-skilled,114,0,0,0,1,0,1,19,0,11.1,0.6,2.02,Graduate
2,1,5,9500,1,1,130,Secondary,Basic,Clerical/service,Clerical/service,122.3,0,0,0,1,0,0,19,0,7.6,2.6,0.32,Graduate
1,17,5,9500,1,1,141,Basic,Basic,Low-skilled,'Manual skilled',131.9,1,0,0,1,0,1,18,0,15.5,2.8,-4.06,Graduate
1,39,1,9500,1,40,130,Secondary,Secondary,Clerical/service,Clerical/service,190,1,0,0,1,0,0,27,0,16.2,0.3,-0.92,Graduate
4,39,1,9991,0,1,120,Basic,Basic,Low-skilled,High-skilled,113.9,1,0,0,1,0,0,39,0,7.6,2.6,0.32,Graduate
1,1,1,9853,1,1,136,Basic,Basic,Low-skilled,Low-skilled,126.9,1,0,0,1,0,1,19,0,11.1,0.6,2.02,Graduate
1,1,1,9238,1,1,121,Secondary,Secondary,High-skilled,High-skilled,115.1,1,0,0,1,0,0,19,0,11.1,0.6,2.02,Graduate
1,17,3,9085,1,1,121,Basic,Secondary,Low-skilled,Low-skilled,111.9,1,0,0,1,1,0,21,0,10.8,1.4,1.74,Graduate
1,1,1,9147,1,1,131,Basic,Basic,Low-skilled,Low-skilled,126.5,0,0,0,1,0,1,18,0,12.4,0.5,1.79,Graduate
1,39,2,9556,1,19,133.1,Basic,Basic,High-skilled,'Manual skilled',117.8,0,0,0,1,0,0,24,0,13.9,-0.3,0.79,Graduate
1,1,2,9773,1,1,148,Secondary,Basic,Low-skilled,Low-skilled,141.7,0,0,0,1,0,0,18,0,10.8,1.4,1.74,Graduate
1,1,1,9773,1,1,140,Basic,Basic,Low-skilled,'Manual skilled',135.8,1,0,0,1,0,1,19,0,10.8,1.4,1.74,Graduate
1,1,6,9500,1,1,150,Basic,Basic,Low-skilled,Low-skilled,131.5,1,0,0,1,0,1,19,0,12.7,3.7,-1.7,Graduate
1,17,1,9238,1,1,125,Higher,Higher,High-skilled,High-skilled,119.8,0,0,0,1,0,0,18,0,16.2,0.3,-0.92,Graduate
1,18,3,9500,1,1,145,Secondary,Secondary,Clerical/service,'Manual skilled',133.6,1,0,0,1,0,0,18,0,11.1,0.6,2.02,Graduate
1,1,1,9130,1,1,133,Secondary,Basic,Low-skilled,Low-skilled,123.2,1,0,0,1,0,1,19,0,8.9,1.4,3.51,Graduate
1,53,1,9085,1,42,140,Basic,Basic,Low-skilled,'Manual skilled',142.5,1,0,0,1,0,1,22,0,8.9,1.4,3.51,Graduate
1,1,3,9500,1,1,137,Basic,Basic,Clerical/service,Clerical/service,131.5,1,0,0,1,0,1,20,0,9.4,-0.8,-3.12,Graduate
1,1,3,9853,1,1,122,Secondary,Higher,Clerical/service,High-skilled,113.6,0,0,0,1,0,0,19,0,11.1,0.6,2.02,Graduate
1,39,1,8014,0,1,120,Secondary,Basic,'Manual skilled','Manual skilled',122,0,0,0,1,0,1,24,0,11.1,0.6,2.02,Graduate
1,1,2,9254,1,1,121,Basic,Basic,Low-skilled,Low-skilled,124.2,1,0,0,1,0,1,18,0,16.2,0.3,-0.92,Graduate
1,1,2,9773,1,1,140,Basic,Basic,Clerical/service,'Manual skilled',126.4,1,0,0,1,1,1,18,0,12.7,3.7,-1.7,Graduate
1,44,1,9003,1,39,130,Secondary,Higher,Low-skilled,'Manual skilled',130,0,0,0,1,1,1,21,0,13.9,-0.3,0.79,Graduate
2,43,1,9991,0,1,110,Basic,Basic,Low-skilled,Low-skilled,132.5,0,0,0,1,1,0,37,0,9.4,-0.8,-3.12,Graduate
1,1,1,9500,1,1,162,Higher,Higher,High-skilled,High-skilled,154.1,0,0,0,1,0,0,18,0,11.1,0.6,2.02,Graduate
1,39,1,9003,1,1,140,Higher,Secondary,Clerical/service,Low-skilled,130,0,0,0,1,1,0,27,0,11.1,0.6,2.02,Graduate
1,1,2,9500,1,1,134,Basic,Basic,Low-skilled,Low-skilled,125.8,1,0,0,1,0,0,18,0,15.5,2.8,-4.06,Graduate
1,17,1,9773,1,1,161,Secondary,Basic,Clerical/service,'Manual skilled',148.4,0,0,0,1,0,1,19,0,15.5,2.8,-4.06,Graduate
1,17,3,9670,1,1,125,Secondary,Higher,Clerical/service,High-skilled,117.3,1,0,0,1,0,0,18,0,8.9,1.4,3.51,Graduate
2,39,1,8014,0,1,120,Basic,Basic,Low-skilled,'Manual skilled',117,0,0,0,1,1,0,33,0,10.8,1.4,1.74,Graduate
1,17,2,9500,1,1,135,Basic,Secondary,Clerical/service,Clerical/service,127.3,1,0,0,1,0,0,18,0,15.5,2.8,-4.06,Graduate
1,1,2,9238,1,1,121,Basic,Basic,Low-skilled,'Manual skilled',119.3,1,0,1,1,0,0,20,0,8.9,1.4,3.51,Graduate
1,53,1,9147,1,42,140,Secondary,Secondary,'Manual skilled','Manual skilled',142.2,0,0,0,1,1,1,21,0,8.9,1.4,3.51,Graduate
1,1,1,9853,1,1,125,Basic,Basic,Clerical/service,Clerical/service,117,0,0,0,1,0,1,19,0,15.5,2.8,-4.06,Graduate
1,1,1,9238,1,1,124,Unknown,Unknown,Other/unknown,Other/unknown,129.3,0,0,0,1,0,0,19,0,7.6,2.6,0.32,Graduate
1,17,5,9119,1,1,118,Secondary,Basic,Low-skilled,Low-skilled,120.5,1,0,0,1,1,0,20,0,12.4,0.5,1.79,Graduate
2,1,1,9254,1,1,140,Basic,Basic,Clerical/service,'Manual skilled',133,0,0,0,1,1,0,33,0,12.7,3.7,-1.7,Graduate
1,1,1,9147,1,1,133.1,Basic,Basic,'Manual skilled','Manual skilled',98,1,0,0,1,1,0,23,0,11.1,0.6,2.02,Graduate
2,39,1,9991,0,1,160,Secondary,Secondary,Low-skilled,High-skilled,128.4,0,0,0,1,0,0,34,0,12.4,0.5,1.79,Graduate
1,18,1,9773,1,1,124,Basic,Basic,Low-skilled,'Manual skilled',126.8,0,0,0,1,1,1,21,0,13.9,-0.3,0.79,Graduate
1,7,1,9991,0,3,140,Basic,Basic,Low-skilled,Low-skilled,140,0,0,0,1,1,0,27,0,7.6,2.6,0.32,Graduate
1,16,4,9773,1,1,109,Basic,Basic,Low-skilled,High-skilled,137,1,0,0,1,0,1,18,0,10.8,1.4,1.74,Graduate
1,42,1,8014,0,1,150,Basic,Higher,Clerical/service,'Manual skilled',148,0,0,0,1,0,0,26,0,9.4,-0.8,-3.12,Graduate
1,1,1,9238,1,1,160,Basic,Basic,Low-skilled,'Manual skilled',155.5,1,0,0,1,0,1,18,0,10.8,1.4,1.74,Graduate
1,51,1,9238,1,1,121,Higher,Basic,High-skilled,Other/unknown,111.9,1,0,0,1,0,0,20,0,12.4,0.5,1.79,Graduate
1,17,5,9773,1,1,143,Secondary,Secondary,'Manual skilled','Manual skilled',136.7,1,0,0,1,0,0,18,0,8.9,1.4,3.51,Graduate
1,39,1,9670,1,1,120,Secondary,Basic,Clerical/service,Clerical/service,100,0,0,0,1,0,1,25,0,9.4,-0.8,-3.12,Graduate
1,39,1,9254,1,1,130,Basic,Basic,Low-skilled,Low-skilled,126.5,0,0,0,1,1,0,26,0,7.6,2.6,0.32,Graduate
1,39,1,9254,1,1,170,Basic,Basic,Clerical/service,'Manual skilled',138.3,0,0,0,1,0,0,33,0,10.8,1.4,1.74,Graduate
2,1,4,9500,1,1,143,Basic,Basic,Clerical/service,Clerical/service,128.7,1,0,0,1,0,0,18,0,15.5,2.8,-4.06,Graduate
1,17,1,9085,1,1,125,Secondary,Basic,Clerical/service,Low-skilled,117,1,0,0,1,0,1,19,0,10.8,1.4,1.74,Graduate
1,1,4,9500,1,1,132,Basic,Basic,Clerical/service,Clerical/service,118,1,0,0,1,0,0,18,0,12.7,3.7,-1.7,Graduate
1,15,1,9254,1,1,160,Secondary,Higher,High-skilled,High-skilled,142.5,1,0,0,0,1,0,19,0,13.9,-0.3,0.79,Graduate
1,1,1,9991,0,1,143,Basic,Basic,Clerical/service,'Manual skilled',135,0,0,0,1,0,1,20,0,10.8,1.4,1.74,Graduate
1,17,1,9500,1,1,142,Basic,Basic,Low-skilled,'Manual skilled',130.8,1,0,0,1,0,1,19,0,13.9,-0.3,0.79,Graduate
1,1,1,9238,1,1,133,Basic,Basic,Low-skilled,Low-skilled,119.7,1,0,1,1,0,1,19,1,8.9,1.4,3.51,Graduate
1,39,1,8014,0,19,133.1,Basic,Basic,Clerical/service,Clerical/service,131.5,0,0,1,1,0,1,39,0,11.1,0.6,2.02,Graduate
1,17,1,9670,1,1,133.1,Secondary,Basic,Clerical/service,High-skilled,140,1,0,0,1,0,0,22,0,13.9,-0.3,0.79,Graduate
1,18,1,171,1,1,110,Basic,Higher,Clerical/service,Clerical/service,117.7,1,0,1,1,1,1,20,0,12.4,0.5,1.79,Graduate
5,39,1,9238,1,1,130,Basic,Basic,Low-skilled,Other/unknown,146,0,0,0,1,1,0,34,0,12.4,0.5,1.79,Graduate
1,1,1,171,1,1,149,Higher,Higher,High-skilled,Clerical/service,151.1,1,0,0,1,1,0,19,0,9.4,-0.8,-3.12,Graduate
1,1,1,9500,1,1,133.1,Basic,Basic,Clerical/service,Other/unknown,101,0,0,0,1,1,0,20,0,15.5,2.8,-4.06,Graduate
1,42,1,9773,1,6,120,Unknown,Unknown,Other/unknown,Other/unknown,122,1,0,0,1,0,0,34,0,7.6,2.6,0.32,Graduate
1,43,2,9238,1,1,110,Basic,Basic,Low-skilled,'Manual skilled',112.5,1,0,0,1,0,1,53,0,9.4,-0.8,-3.12,Graduate
1,1,2,9773,1,1,159,Secondary,Basic,Low-skilled,Low-skilled,151.3,1,0,0,1,0,0,18,0,10.8,1.4,1.74,Graduate
1,43,1,9500,1,1,150,Basic,Basic,Low-skilled,Low-skilled,130.8,1,0,0,1,0,1,21,0,12.7,3.7,-1.7,Graduate
1,42,1,9085,1,39,150,Secondary,Secondary,Clerical/service,'Manual skilled',150,1,0,0,1,0,0,26,0,15.5,2.8,-4.06,Graduate
1,51,1,8014,0,2,110,Basic,Basic,Low-skilled,Other/unknown,110,0,0,0,1,1,0,42,0,11.1,0.6,2.02,Graduate
1,39,1,9991,0,1,130,Secondary,Secondary,High-skilled,'Manual skilled',140,0,0,0,1,1,0,26,0,15.5,2.8,-4.06,Graduate
1,17,4,9119,1,1,133,Higher,Secondary,Low-skilled,High-skilled,123.2,1,0,0,1,1,0,18,0,8.9,1.4,3.51,Graduate
1,51,1,9500,1,1,170,Secondary,Secondary,Clerical/service,Other/unknown,125,0,0,0,1,1,0,20,0,11.1,0.6,2.02,Graduate
1,1,4,9773,1,1,133,Basic,Basic,'Manual skilled','Manual skilled',134.4,1,0,0,1,1,1,20,0,9.4,-0.8,-3.12,Graduate
1,43,4,9500,1,6,134,Basic,Basic,Low-skilled,Low-skilled,129.8,1,0,0,1,0,0,20,0,7.6,2.6,0.32,Graduate
1,1,1,9085,1,1,131,Basic,Basic,Other/unknown,Other/unknown,137,0,0,0,1,0,0,18,0,7.6,2.6,0.32,Graduate
1,1,1,9238,1,1,134,Secondary,Basic,Clerical/service,Low-skilled,129.8,0,0,0,1,0,1,20,0,15.5,2.8,-4.06,Graduate
1,17,2,9238,1,1,145,Basic,Basic,'Manual skilled','Manual skilled',128.6,1,0,0,1,0,1,19,0,12.7,3.7,-1.7,Graduate
1,1,4,9500,1,1,136,Basic,Basic,Low-skilled,Low-skilled,126.3,1,0,0,1,0,1,18,0,7.6,2.6,0.32,Graduate
1,1,1,9853,1,1,145,Basic,Basic,Low-skilled,Clerical/service,146.8,0,0,0,1,0,0,18,0,7.6,2.6,0.32,Graduate
1,10,1,9085,1,1,184.4,Higher,Basic,High-skilled,'Manual skilled',184.4,0,0,0,1,0,0,18,1,11.1,0.6,2.02,Graduate
4,39,1,8014,0,1,130,Basic,Basic,Low-skilled,'Manual skilled',138,0,0,0,1,0,0,42,0,8.9,1.4,3.51,Graduate
1,42,1,9991,0,1,160,Secondary,Higher,Clerical/service,High-skilled,120,0,0,0,1,0,0,30,0,7.6,2.6,0.32,Graduate
1,1,1,9670,1,1,141,Basic,Basic,Low-skilled,Low-skilled,130.5,0,0,0,1,1,0,19,0,11.1,0.6,2.02,Graduate
1,43,1,8014,0,10,100,Unknown,Unknown,Other/unknown,Other/unknown,113,1,0,0,1,0,0,30,0,7.6,2.6,0.32,Graduate
1,1,1,9773,1,1,121,Basic,Secondary,'Manual skilled',Low-skilled,117.9,1,0,0,1,0,0,19,0,11.1,0.6,2.02,Graduate
1,7,1,8014,0,43,180,Basic,Basic,Low-skilled,Clerical/service,180,0,0,0,1,0,0,37,0,8.9,1.4,3.51,Graduate
1,1,2,9670,1,1,120,Higher,Basic,Clerical/service,Clerical/service,115.5,1,0,0,1,0,0,18,0,13.9,-0.3,0.79,Graduate
1,1,1,9853,1,1,142,Secondary,Secondary,Low-skilled,Clerical/service,132.6,1,0,0,1,0,0,18,0,7.6,2.6,0.32,Graduate
1,1,2,9070,1,1,135,Basic,Basic,Low-skilled,Low-skilled,134,1,0,0,1,0,1,22,0,12.7,3.7,-1.7,Graduate
1,39,1,8014,0,1,133.1,Basic,Basic,Low-skilled,Low-skilled,97,0,0,0,1,0,1,35,0,10.8,1.4,1.74,Graduate
1,1,1,9085,1,1,134,Basic,Basic,Low-skilled,Clerical/service,128.4,1,0,0,1,0,1,19,0,10.8,1.4,1.74,Graduate
1,17,1,9670,1,1,120,Basic,Basic,Clerical/service,'Manual skilled',115.1,1,0,0,1,0,0,19,0,12.4,0.5,1.79,Graduate
1,17,6,9500,1,1,143,Secondary,Basic,High-skilled,High-skilled,133.2,1,0,0,1,0,0,18,0,11.1,0.6,2.02,Graduate
1,1,2,9773,1,1,124,Higher,Higher,High-skilled,Clerical/service,114.6,1,0,0,1,0,0,21,0,11.1,0.6,2.02,Graduate
1,1,1,9238,1,1,116,Basic,Basic,Low-skilled,'Manual skilled',116.4,1,0,0,1,0,0,18,0,8.9,1.4,3.51,Graduate
1,1,2,9238,1,1,124,Basic,Basic,Low-skilled,'Manual skilled',129.6,1,0,0,1,1,0,19,0,7.6,2.6,0.32,Graduate
1,44,1,9003,1,39,130,Secondary,Basic,High-skilled,Other/unknown,130,1,0,0,1,1,0,19,0,12.4,0.5,1.79,Graduate
1,18,1,9500,1,1,115,Basic,Basic,Clerical/service,Clerical/service,115,0,0,0,1,0,0,20,0,15.5,2.8,-4.06,Graduate
1,43,4,9500,1,6,118.9,Basic,Basic,Clerical/service,Low-skilled,118.9,1,0,0,1,0,1,19,0,7.6,2.6,0.32,Graduate
1,1,1,9238,1,1,133,Basic,Basic,Low-skilled,Low-skilled,121.8,1,0,0,1,0,1,18,0,12.4,0.5,1.79,Graduate
1,17,1,9085,1,1,139,Basic,Basic,Clerical/service,High-skilled,136.2,0,0,0,1,0,0,19,0,7.6,2.6,0.32,Graduate
1,1,1,9853,1,1,115,Basic,Basic,Low-skilled,Low-skilled,108,0,0,0,1,0,1,19,0,12.4,0.5,1.79,Graduate
2,39,1,9254,1,1,130,Basic,Basic,Clerical/service,'Manual skilled',120,1,0,0,1,0,0,34,0,9.4,-0.8,-3.12,Graduate
1,17,1,9085,1,1,131,Secondary,Higher,Clerical/service,High-skilled,129.3,1,0,0,1,0,0,19,0,12.7,3.7,-1.7,Graduate
2,39,1,9238,1,1,126.6,Basic,Basic,Low-skilled,'Manual skilled',107.5,0,0,1,1,0,1,42,0,11.1,0.6,2.02,Graduate
1,1,2,9670,1,1,130,Basic,Basic,Other/unknown,Clerical/service,128.6,1,0,1,1,0,0,19,0,7.6,2.6,0.32,Graduate
2,39,1,8014,0,1,133.1,Basic,Basic,Low-skilled,Low-skilled,114,0,0,0,1,0,0,44,0,12.7,3.7,-1.7,Graduate
4,39,1,8014,0,1,160,Basic,Basic,Clerical/service,Clerical/service,126,0,0,0,1,0,1,38,0,13.9,-0.3,0.79,Graduate
1,1,6,171,1,1,134,Basic,Basic,Clerical/service,Clerical/service,126,1,0,0,1,0,1,18,0,9.4,-0.8,-3.12,Graduate
1,1,6,9500,1,1,144,Basic,Basic,Clerical/service,Clerical/service,130.3,1,0,0,1,0,1,18,0,12.7,3.7,-1.7,Graduate
1,1,2,9500,1,1,138,Basic,Secondary,Clerical/service,Clerical/service,128,1,0,0,1,0,0,19,0,11.1,0.6,2.02,Graduate
1,43,1,9085,1,39,150,Basic,Basic,'Manual skilled','Manual skilled',150,1,0,0,1,0,1,21,0,10.8,1.4,1.74,Graduate
2,39,1,9670,1,1,150,Basic,Basic,Low-skilled,Clerical/service,135.6,0,0,0,1,0,1,43,0,12.4,0.5,1.79,Graduate
1,1,1,9085,1,1,130,Basic,Basic,Other/unknown,Other/unknown,122.6,0,0,0,1,0,0,18,0,7.6,2.6,0.32,Graduate
1,17,4,9500,1,1,133,Basic,Basic,High-skilled,Other/unknown,131.1,1,0,0,1,0,0,18,0,13.9,-0.3,0.79,Graduate
1,1,1,171,1,1,133.1,Basic,Basic,Clerical/service,Clerical/service,131.8,1,0,1,1,0,0,20,0,8.9,1.4,3.51,Graduate
1,44,1,9085,1,39,150,Higher,Basic,High-skilled,Clerical/service,150,1,0,0,1,0,0,22,0,12.4,0.5,1.79,Graduate
1,43,3,9500,1,1,140,Secondary,Basic,Low-skilled,'Manual skilled',127.5,1,0,1,1,0,1,20,0,15.5,2.8,-4.06,Graduate
1,1,1,9853,1,1,131,Basic,Basic,High-skilled,'Manual skilled',127.9,1,0,0,1,0,1,18,0,13.9,-0.3,0.79,Graduate
1,17,1,9238,1,1,145,Basic,Basic,Low-skilled,'Manual skilled',145,0,0,0,1,0,1,19,0,12.4,0.5,1.79,Graduate
1,1,1,9085,1,1,123,Basic,Basic,Low-skilled,Low-skilled,124.1,1,0,0,1,0,1,20,0,9.4,-0.8,-3.12,Graduate
1,1,3,9773,1,1,161,Basic,Basic,Low-skilled,Low-skilled,137.9,0,0,1,0,0,1,20,1,10.8,1.4,1.74,Graduate
1,1,1,9147,1,1,156,Higher,Basic,High-skilled,High-skilled,151.1,0,0,1,1,1,0,19,0,16.2,0.3,-0.92,Graduate
1,1,1,9500,1,1,141,Basic,Basic,Low-skilled,Low-skilled,136.3,1,0,0,1,1,1,18,0,7.6,2.6,0.32,Graduate
1,39,1,9991,0,1,130,Basic,Basic,Low-skilled,Low-skilled,120.2,1,0,0,1,1,0,30,0,7.6,2.6,0.32,Graduate
1,51,1,9500,1,1,129,Basic,Basic,High-skilled,High-skilled,137.8,1,0,0,1,0,1,20,0,11.1,0.6,2.02,Graduate
1,17,2,9254,1,1,132,Basic,Basic,Low-skilled,'Manual skilled',122.6,1,0,0,1,0,1,20,0,13.9,-0.3,0.79,Graduate
1,17,6,9500,1,1,136,Basic,Basic,Low-skilled,High-skilled,132.5,1,0,0,1,0,0,19,0,12.7,3.7,-1.7,Graduate
1,1,1,9070,1,1,136,Secondary,Basic,Clerical/service,Clerical/service,132.2,0,0,1,1,0,0,19,0,10.8,1.4,1.74,Graduate
1,1,2,9773,1,1,143,Secondary,Secondary,Clerical/service,Low-skilled,144.1,1,0,0,1,1,1,19,0,12.7,3.7,-1.7,Graduate
1,1,3,9085,1,1,158,Secondary,Basic,Low-skilled,Low-skilled,153.6,1,0,0,1,0,1,18,0,8.9,1.4,3.51,Graduate
1,1,1,9070,1,1,116,Secondary,Secondary,Clerical/service,'Manual skilled',110.4,1,0,0,1,1,0,19,0,8.9,1.4,3.51,Graduate
1,1,1,9500,1,1,132,Basic,Basic,Low-skilled,'Manual skilled',122,1,0,0,1,0,1,20,0,10.8,1.4,1.74,Graduate
1,1,1,9500,1,1,128,Higher,Secondary,High-skilled,High-skilled,127.8,0,0,0,1,0,1,19,0,13.9,-0.3,0.79,Graduate
1,1,1,9085,1,1,138,Secondary,Higher,Low-skilled,High-skilled,123,1,0,0,1,0,0,19,0,15.5,2.8,-4.06,Graduate
1,39,1,9991,0,1,150,Secondary,Basic,Low-skilled,'Manual skilled',130.2,0,0,0,1,0,1,24,0,16.2,0.3,-0.92,Graduate
1,1,1,9670,1,1,154,Secondary,Secondary,Clerical/service,'Manual skilled',154.7,0,0,0,1,0,1,18,0,9.4,-0.8,-3.12,Graduate
1,17,1,9238,1,1,133,Basic,Basic,Clerical/service,'Manual skilled',123.6,0,0,0,1,0,1,19,0,15.5,2.8,-4.06,Graduate
2,39,1,9991,0,1,170,Basic,Basic,Clerical/service,'Manual skilled',134.7,0,0,0,1,0,0,33,0,10.8,1.4,1.74,Graduate
1,7,1,9991,0,3,130,Higher,Basic,High-skilled,High-skilled,133.9,0,0,0,1,0,0,28,0,16.2,0.3,-0.92,Graduate
1,1,2,9500,1,1,133,Basic,Secondary,Low-skilled,High-skilled,122.2,0,0,0,1,0,0,20,0,13.9,-0.3,0.79,Graduate
1,1,1,9773,1,1,126,Basic,Basic,'Manual skilled','Manual skilled',119,0,0,0,1,0,1,18,0,15.5,2.8,-4.06,Graduate
1,1,4,9500,1,1,140,Secondary,Basic,Low-skilled,'Manual skilled',127,1,0,0,1,0,0,19,0,12.7,3.7,-1.7,Graduate
1,1,4,9500,1,1,135,Basic,Basic,Low-skilled,'Manual skilled',123,1,0,0,1,0,1,18,0,10.8,1.4,1.74,Graduate
1,17,3,9500,1,1,136,Basic,Basic,Clerical/service,Clerical/service,126,1,0,0,1,0,0,19,0,10.8,1.4,1.74,Graduate
1,1,2,9556,1,1,142,Secondary,Basic,Clerical/service,Clerical/service,130.5,1,0,0,1,0,1,18,0,16.2,0.3,-0.92,Graduate
1,1,1,9085,1,1,119,Higher,Secondary,Clerical/service,High-skilled,113.1,1,0,0,1,0,0,21,0,10.8,1.4,1.74,Graduate
1,1,3,9500,1,1,153,Basic,Basic,Low-skilled,Low-skilled,131.8,1,0,0,1,0,0,18,1,7.6,2.6,0.32,Graduate
1,17,5,9085,1,1,118,Basic,Basic,Low-skilled,Low-skilled,112.4,1,0,0,1,0,0,19,0,15.5,2.8,-4.06,Graduate
1,17,5,9556,1,1,139,Basic,Basic,Low-skilled,'Manual skilled',121.3,1,0,0,1,0,1,19,0,10.8,1.4,1.74,Graduate
1,1,3,9500,1,1,141,Secondary,Secondary,Low-skilled,Low-skilled,126.3,1,0,0,1,0,0,18,0,12.7,3.7,-1.7,Graduate
1,1,2,9853,1,1,134,Secondary,Basic,Low-skilled,'Manual skilled',122.5,1,0,0,1,0,1,19,0,15.5,2.8,-4.06,Graduate
1,1,1,9670,1,1,113,Secondary,Basic,High-skilled,Other/unknown,116.5,1,0,0,1,0,0,19,0,8.9,1.4,3.51,Graduate
1,1,1,9500,1,1,135,Basic,Higher,Low-skilled,Clerical/service,121.5,1,0,0,1,0,0,18,0,7.6,2.6,0.32,Graduate
1,1,2,9500,1,1,120,Higher,Basic,Clerical/service,'Manual skilled',115.1,1,0,0,1,0,1,19,0,12.4,0.5,1.79,Graduate
1,17,2,9238,1,1,111,Basic,Basic,Low-skilled,Low-skilled,110.7,1,0,0,1,0,0,19,0,8.9,1.4,3.51,Graduate
1,1,2,9773,1,1,115,Unknown,Basic,Other/unknown,Clerical/service,108.4,1,0,0,1,0,0,20,0,7.6,2.6,0.32,Graduate
1,1,2,9500,1,1,124,Basic,Basic,'Manual skilled','Manual skilled',116.5,1,0,0,1,0,1,20,0,11.1,0.6,2.02,Graduate
1,1,2,9500,1,1,133.1,Basic,Basic,'Manual skilled',Low-skilled,125.5,1,0,0,1,0,1,21,0,15.5,2.8,-4.06,Graduate
1,1,1,9085,1,1,145,Basic,Basic,Low-skilled,Other/unknown,139.8,1,0,0,1,0,0,20,0,12.7,3.7,-1.7,Graduate
1,1,1,9670,1,1,112,Basic,Secondary,'Manual skilled',Other/unknown,110.6,0,0,0,1,0,0,20,0,7.6,2.6,0.32,Graduate
1,17,2,9254,1,1,141,Secondary,Higher,Clerical/service,Clerical/service,127.7,0,0,0,1,0,1,18,0,16.2,0.3,-0.92,Graduate
1,1,1,9500,1,1,151,Basic,Basic,Low-skilled,Low-skilled,138,1,0,0,1,0,0,18,0,7.6,2.6,0.32,Graduate
1,1,2,9070,1,1,137,Basic,Basic,Low-skilled,Low-skilled,127.2,1,0,0,1,0,1,20,0,13.9,-0.3,0.79,Graduate
1,39,1,9254,1,1,130,Basic,Basic,Low-skilled,'Manual skilled',113.5,0,0,0,1,0,1,24,0,12.4,0.5,1.79,Graduate
1,1,1,9238,1,1,133.1,Basic,Basic,Low-skilled,Low-skilled,130,0,0,0,0,0,1,20,0,10.8,1.4,1.74,Graduate
1,1,1,9773,1,1,134,Secondary,Basic,Clerical/service,Clerical/service,122.8,0,0,0,1,1,0,18,0,12.7,3.7,-1.7,Graduate
1,17,2,9254,1,1,116,Basic,Basic,Clerical/service,Clerical/service,116,1,0,0,1,0,0,19,0,8.9,1.4,3.51,Graduate
1,1,6,9500,1,1,138,Basic,Basic,Low-skilled,'Manual skilled',127.2,1,0,0,1,0,1,18,0,15.5,2.8,-4.06,Graduate
1,1,5,9500,1,1,139,Basic,Basic,Low-skilled,Clerical/service,130.5,1,0,0,1,0,0,19,0,10.8,1.4,1.74,Graduate
1,44,1,9085,1,39,150,Higher,Higher,High-skilled,High-skilled,150,1,0,0,1,0,0,22,0,13.9,-0.3,0.79,Graduate
1,1,2,9556,1,1,136,Basic,Basic,Low-skilled,Low-skilled,129.5,1,0,0,1,0,0,18,0,12.7,3.7,-1.7,Graduate
1,1,1,9238,1,1,140,Secondary,Basic,Clerical/service,Clerical/service,140.7,0,0,0,1,0,0,19,0,12.4,0.5,1.79,Graduate
1,39,1,9147,1,19,133.1,Higher,Secondary,High-skilled,Clerical/service,153.2,1,0,1,1,0,0,24,0,12.4,0.5,1.79,Graduate
1,1,2,9500,1,1,123,Basic,Basic,'Manual skilled','Manual skilled',120.8,1,0,0,1,0,0,19,0,10.8,1.4,1.74,Graduate
1,1,1,9853,1,1,130,Basic,Basic,High-skilled,'Manual skilled',131.8,0,0,0,1,0,0,18,0,11.1,0.6,2.02,Graduate
1,17,1,9254,1,1,115,Secondary,Basic,High-skilled,High-skilled,109.4,1,0,0,1,0,0,19,0,11.1,0.6,2.02,Graduate
1,1,1,9238,1,1,142,Secondary,Basic,Clerical/service,'Manual skilled',128,0,0,0,1,0,1,19,0,16.2,0.3,-0.92,Graduate
1,1,3,9773,1,1,123,Secondary,Secondary,Clerical/service,'Manual skilled',125.1,1,0,1,1,1,1,18,0,11.1,0.6,2.02,Graduate
1,1,1,171,1,1,163,Higher,Higher,High-skilled,Clerical/service,175.6,1,0,0,1,0,0,18,0,11.1,0.6,2.02,Graduate
1,1,2,171,1,1,133.1,Higher,Secondary,High-skilled,High-skilled,141,1,0,0,1,0,0,19,0,12.7,3.7,-1.7,Graduate
2,39,1,8014,0,12,110,Basic,Basic,'Manual skilled',Low-skilled,120,0,0,0,1,0,0,42,0,10.8,1.4,1.74,Graduate
1,1,1,9070,1,1,150,Basic,Basic,Low-skilled,'Manual skilled',131.1,0,0,0,1,0,1,19,0,15.5,2.8,-4.06,Graduate
1,1,1,9853,1,1,132,Secondary,Basic,High-skilled,High-skilled,122.9,1,0,0,1,0,0,20,0,11.1,0.6,2.02,Graduate
1,1,1,9500,1,1,148,Basic,Basic,Low-skilled,Low-skilled,138.7,0,0,0,1,0,1,19,0,15.5,2.8,-4.06,Graduate
1,43,1,9853,1,1,130,Higher,Secondary,High-skilled,Clerical/service,124.6,0,0,0,1,1,0,37,0,12.4,0.5,1.79,Graduate
1,1,1,171,1,1,161,Secondary,Secondary,Low-skilled,'Manual skilled',163.1,1,0,0,0,0,0,19,1,8.9,1.4,3.51,Graduate
1,17,4,9500,1,1,140,Secondary,Secondary,High-skilled,High-skilled,127.6,1,0,0,1,0,0,23,0,12.4,0.5,1.79,Graduate
1,17,1,9500,1,1,148,Basic,Basic,Clerical/service,Low-skilled,137.8,1,0,0,1,0,1,18,0,10.8,1.4,1.74,Graduate
1,17,1,9670,1,1,145,Higher,Higher,High-skilled,High-skilled,129.3,1,0,0,1,0,0,20,0,16.2,0.3,-0.92,Graduate
2,7,1,9070,1,43,140,Basic,Secondary,Low-skilled,'Manual skilled',140,0,0,0,1,0,0,33,0,11.1,0.6,2.02,Graduate
1,43,1,9238,1,1,120,Secondary,Basic,Clerical/service,High-skilled,118.3,0,0,0,1,0,1,20,0,13.9,-0.3,0.79,Graduate
1,1,1,9500,1,1,127,Higher,Secondary,High-skilled,Low-skilled,119.3,1,0,0,1,0,0,20,0,11.1,0.6,2.02,Graduate
1,1,1,171,1,1,141,Higher,Secondary,Clerical/service,Clerical/service,142.8,1,0,0,1,0,0,18,0,12.4,0.5,1.79,Graduate
1,43,1,9500,1,1,140,Basic,Basic,'Manual skilled','Manual skilled',138.6,0,0,0,1,0,1,19,0,16.2,0.3,-0.92,Graduate
1,17,1,9147,1,1,139,Secondary,Basic,Clerical/service,Clerical/service,152,0,0,0,1,0,1,18,0,12.7,3.7,-1.7,Graduate
1,17,1,9254,1,1,125,Basic,Basic,'Manual skilled',Clerical/service,118,1,0,0,1,0,1,19,0,9.4,-0.8,-3.12,Graduate
1,17,1,9254,1,1,140,Higher,Secondary,High-skilled,High-skilled,129.9,0,0,0,1,0,1,19,0,9.4,-0.8,-3.12,Graduate
2,39,1,9853,1,19,133.1,Basic,Basic,Low-skilled,Low-skilled,131,0,0,0,1,0,1,32,0,13.9,-0.3,0.79,Graduate
1,39,2,8014,0,1,141,Basic,Basic,Low-skilled,Low-skilled,150.5,0,0,0,1,0,0,29,0,12.4,0.5,1.79,Graduate
1,17,1,9070,1,1,116,Basic,Basic,Low-skilled,Low-skilled,123.7,0,0,0,1,0,0,20,0,11.1,0.6,2.02,Graduate
1,39,1,9991,0,1,120,Basic,Basic,Clerical/service,'Manual skilled',146.2,0,0,0,1,0,0,27,0,11.1,0.6,2.02,Graduate
1,39,1,9147,1,1,160,Basic,Basic,'Manual skilled',Low-skilled,121.4,0,1,0,1,0,1,26,0,16.2,0.3,-0.92,Graduate
1,17,3,9500,1,1,137,Secondary,Secondary,Clerical/service,Other/unknown,124.8,1,0,0,1,1,1,19,0,15.5,2.8,-4.06,Graduate
1,1,2,9147,1,1,132,Secondary,Basic,Clerical/service,High-skilled,126.4,1,0,0,1,0,1,18,0,13.9,-0.3,0.79,Graduate
1,1,1,9070,1,1,124,Basic,Basic,Low-skilled,Low-skilled,125.4,1,0,0,1,1,0,19,0,9.4,-0.8,-3.12,Graduate
1,44,1,9070,1,39,120,Higher,Basic,High-skilled,Low-skilled,120,0,0,0,1,1,0,20,0,16.2,0.3,-0.92,Graduate
1,10,1,9773,1,1,152,Basic,Basic,Clerical/service,Low-skilled,152,1,0,0,1,0,0,22,1,12.7,3.7,-1.7,Graduate
1,1,2,9853,1,1,133,Basic,Basic,Clerical/service,Low-skilled,130.2,1,0,0,1,0,0,19,0,12.7,3.7,-1.7,'Not on time'
1,1,1,9238,1,1,151,Basic,Basic,Low-skilled,Low-skilled,157,1,0,1,1,0,1,18,0,7.6,2.6,0.32,'Not on time'
1,39,1,33,1,1,130,Basic,Basic,Low-skilled,'Manual skilled',102.5,0,0,1,0,1,0,37,0,8.9,1.4,3.51,'Not on time'
1,17,1,9773,1,1,120,Secondary,Basic,Clerical/service,Clerical/service,121.4,0,0,0,0,0,0,20,0,12.4,0.5,1.79,'Not on time'
1,39,1,9991,0,1,130,Basic,Basic,Low-skilled,Low-skilled,120,0,0,0,1,0,0,27,0,9.4,-0.8,-3.12,'Not on time'
1,17,1,9070,1,1,127,Secondary,Secondary,High-skilled,Clerical/service,130.2,1,0,0,1,1,0,19,0,10.8,1.4,1.74,'Not on time'
1,17,1,9147,1,1,148,Basic,Basic,Clerical/service,Clerical/service,134,0,0,0,1,1,0,18,0,7.6,2.6,0.32,'Not on time'
1,1,6,9853,1,1,114,Basic,Basic,Low-skilled,Low-skilled,110.2,1,0,0,1,1,0,20,0,10.8,1.4,1.74,'Not on time'
1,43,2,9119,1,1,115,Basic,Basic,Low-skilled,'Manual skilled',112.2,1,0,1,1,1,0,18,0,15.5,2.8,-4.06,'Not on time'
1,1,1,9085,1,1,135,Secondary,Higher,Low-skilled,High-skilled,134.3,1,0,0,1,0,0,19,0,12.7,3.7,-1.7,'Not on time'
1,1,2,9238,1,1,122,Basic,Basic,Clerical/service,'Manual skilled',118.2,1,0,0,1,0,0,19,0,16.2,0.3,-0.92,'Not on time'
1,17,2,9500,1,1,122,Basic,Basic,Low-skilled,Low-skilled,131,1,0,0,1,0,0,18,0,7.6,2.6,0.32,'Not on time'
1,1,1,171,1,1,137,Higher,Basic,High-skilled,Low-skilled,122.3,0,0,0,1,0,0,19,0,10.8,1.4,1.74,'Not on time'
1,1,1,9670,1,1,117,Secondary,Basic,High-skilled,Low-skilled,109.3,0,0,1,0,0,1,19,0,12.4,0.5,1.79,'Not on time'
1,1,1,171,1,1,136,Higher,Basic,High-skilled,'Manual skilled',121.7,1,0,0,1,0,0,18,0,9.4,-0.8,-3.12,'Not on time'
1,17,5,9853,1,1,132,Secondary,Secondary,Clerical/service,Clerical/service,123.3,1,0,0,1,0,0,21,0,10.8,1.4,1.74,'Not on time'
1,1,1,9670,1,1,131,Basic,Basic,Low-skilled,Low-skilled,123,1,0,0,1,0,1,18,0,7.6,2.6,0.32,'Not on time'
1,39,1,9773,1,19,133.1,Basic,Basic,High-skilled,Clerical/service,104,0,0,1,0,0,0,27,0,11.1,0.6,2.02,'Not on time'
1,39,1,9085,1,1,133.1,Secondary,Basic,Low-skilled,Low-skilled,162.3,1,0,0,1,0,0,24,0,8.9,1.4,3.51,'Not on time'
1,7,1,9119,1,3,150,Higher,Higher,High-skilled,High-skilled,150,0,0,0,1,0,0,35,0,13.9,-0.3,0.79,'Not on time'
1,39,1,8014,0,1,120,Basic,Basic,'Manual skilled','Manual skilled',100,1,0,0,1,0,0,24,0,9.4,-0.8,-3.12,'Not on time'
1,39,1,9254,1,3,133.1,Basic,Basic,Clerical/service,'Manual skilled',130.5,0,0,0,1,0,0,38,0,15.5,2.8,-4.06,'Not on time'
1,16,1,171,1,1,145,Higher,Higher,High-skilled,High-skilled,155,1,0,0,1,0,0,24,0,12.4,0.5,1.79,'Not on time'
1,1,1,9773,1,1,127,Basic,Basic,Low-skilled,'Manual skilled',123.2,1,0,0,1,0,0,18,0,9.4,-0.8,-3.12,'Not on time'
1,43,1,9119,1,1,130,Basic,Basic,Low-skilled,Low-skilled,120,0,0,1,0,0,0,30,0,7.6,2.6,0.32,'Not on time'
1,17,1,9070,1,1,123,Higher,Basic,High-skilled,Low-skilled,113.9,0,0,0,1,0,0,18,0,15.5,2.8,-4.06,'Not on time'
1,1,1,9670,1,1,119,Secondary,Basic,Clerical/service,Other/unknown,115.5,1,0,0,1,0,0,19,0,10.8,1.4,1.74,'Not on time'
1,17,1,9500,1,1,160,Basic,Basic,'Manual skilled','Manual skilled',147.8,0,0,0,1,0,0,20,0,15.5,2.8,-4.06,'Not on time'
1,1,1,9853,1,1,123,Secondary,Basic,Low-skilled,'Manual skilled',121.6,1,0,0,1,0,0,18,0,11.1,0.6,2.02,'Not on time'
1,43,1,9238,1,1,110,Basic,Basic,Low-skilled,Low-skilled,110,0,0,0,1,0,0,36,0,15.5,2.8,-4.06,'Not on time'
1,39,1,9991,0,1,133.1,Basic,Basic,Other/unknown,'Manual skilled',128.2,0,0,0,1,0,0,33,0,12.7,3.7,-1.7,'Not on time'
1,1,4,9500,1,1,136,Secondary,Secondary,Low-skilled,High-skilled,133,1,0,0,1,0,0,19,0,7.6,2.6,0.32,'Not on time'
2,51,1,8014,0,19,133.1,Basic,Basic,Low-skilled,Low-skilled,104,0,0,1,1,0,0,42,0,11.1,0.6,2.02,'Not on time'
1,43,1,9500,1,1,170,Basic,Basic,'Manual skilled','Manual skilled',100,0,0,0,1,0,0,20,0,13.9,-0.3,0.79,'Not on time'
1,1,6,9773,1,1,141,Basic,Basic,'Manual skilled','Manual skilled',128.4,1,0,1,0,0,0,18,0,7.6,2.6,0.32,'Not on time'
1,17,1,9254,1,1,136,Basic,Basic,'Manual skilled','Manual skilled',121.7,1,0,0,1,0,0,20,0,10.8,1.4,1.74,'Not on time'
1,1,4,9500,1,1,140,Secondary,Basic,Clerical/service,Clerical/service,127.5,0,0,0,1,0,0,18,0,12.7,3.7,-1.7,'Not on time'
1,17,1,9254,1,1,122,Basic,Basic,Clerical/service,Clerical/service,118.2,0,0,0,1,0,1,20,0,12.4,0.5,1.79,'Not on time'
1,1,3,9254,1,1,122,Basic,Basic,High-skilled,Other/unknown,114.3,1,0,0,1,0,1,20,0,12.4,0.5,1.79,'Not on time'
1,43,1,8014,0,1,133.1,Higher,Higher,High-skilled,High-skilled,135,0,0,0,1,0,0,27,0,10.8,1.4,1.74,'Not on time'
1,7,1,9500,1,3,140,Unknown,Unknown,Other/unknown,Other/unknown,140,0,0,0,1,0,0,28,0,7.6,2.6,0.32,'Not on time'
1,39,1,9670,1,1,120,Secondary,Basic,Clerical/service,Clerical/service,140.4,0,0,0,1,0,0,31,0,13.9,-0.3,0.79,'Not on time'
1,17,3,9085,1,1,134,Basic,Basic,Low-skilled,Low-skilled,120.4,1,0,0,1,0,0,20,0,9.4,-0.8,-3.12,'Not on time'
1,1,1,9130,1,1,150,Higher,Higher,High-skilled,High-skilled,146.2,0,0,0,1,0,0,18,0,9.4,-0.8,-3.12,'Not on time'
2,18,2,8014,0,1,140,Basic,Basic,Low-skilled,Other/unknown,120.4,0,0,1,0,0,0,39,0,9.4,-0.8,-3.12,'Not on time'
1,1,1,9556,1,1,180,Higher,Higher,High-skilled,High-skilled,183.5,1,0,0,1,0,0,18,1,16.2,0.3,-0.92,'Not on time'
1,17,1,9147,1,1,126,Basic,Basic,Clerical/service,'Manual skilled',116.9,0,0,0,1,1,1,19,0,12.7,3.7,-1.7,'Not on time'
1,1,1,9147,1,1,117,Basic,Basic,Clerical/service,'Manual skilled',118.4,0,0,0,1,1,0,20,0,7.6,2.6,0.32,'Not on time'
1,1,1,9500,1,1,149,Basic,Basic,Low-skilled,Low-skilled,138,0,0,0,1,1,0,18,0,9.4,-0.8,-3.12,'Not on time'
1,17,2,9147,1,1,133.1,Secondary,Secondary,Clerical/service,Clerical/service,95,0,0,0,1,1,0,20,0,11.1,0.6,2.02,'Not on time'
1,39,1,9991,0,1,139,Secondary,Secondary,Clerical/service,Other/unknown,140.7,0,0,0,1,1,0,25,0,12.4,0.5,1.79,'Not on time'
1,1,6,9147,1,1,121,Higher,Basic,Clerical/service,Clerical/service,116.8,0,0,0,1,1,0,20,0,13.9,-0.3,0.79,'Not on time'
1,1,1,9500,1,1,133,Higher,Basic,High-skilled,'Manual skilled',126.7,0,0,0,1,0,0,19,0,16.2,0.3,-0.92,'Not on time'
4,39,1,9853,1,1,143,Basic,Secondary,Low-skilled,Other/unknown,140,0,0,1,0,0,0,31,0,8.9,1.4,3.51,'Not on time'
1,17,1,9085,1,1,127,Basic,Basic,Low-skilled,Low-skilled,117.6,0,0,0,1,0,0,18,0,12.4,0.5,1.79,'Not on time'
1,17,5,9853,1,1,117,Basic,Basic,Low-skilled,'Manual skilled',114.6,1,0,0,1,0,0,19,0,9.4,-0.8,-3.12,'Not on time'
1,18,1,9773,1,1,135,Secondary,Secondary,High-skilled,High-skilled,129.8,0,0,0,1,0,1,18,0,12.7,3.7,-1.7,'Not on time'
1,1,2,9773,1,1,108,Basic,Basic,'Manual skilled','Manual skilled',115,1,0,1,0,0,0,20,0,8.9,1.4,3.51,'Not on time'
1,1,1,9238,1,1,135,Basic,Basic,Clerical/service,Other/unknown,121,0,0,1,1,0,0,18,0,7.6,2.6,0.32,'Not on time'
1,42,1,8014,0,1,120,Basic,Basic,Other/unknown,'Manual skilled',120,1,0,0,1,0,0,30,0,7.6,2.6,0.32,'Not on time'
4,39,1,9238,1,19,133.1,Basic,Basic,Low-skilled,Other/unknown,103.5,0,0,0,0,0,0,44,0,13.9,-0.3,0.79,'Not on time'
1,39,1,33,1,1,100,Basic,Basic,Low-skilled,'Manual skilled',100,0,0,1,0,1,0,35,1,16.2,0.3,-0.92,'Not on time'
2,39,1,9147,1,19,133.1,Basic,Basic,Low-skilled,High-skilled,128,0,0,0,1,1,0,49,0,8.9,1.4,3.51,'Not on time'
2,39,1,9991,0,19,133.1,Basic,Basic,Other/unknown,Other/unknown,121.7,1,0,0,1,1,0,45,0,7.6,2.6,0.32,'Not on time'
1,43,1,9670,1,1,142,Basic,Secondary,'Manual skilled',Other/unknown,138.5,1,0,0,1,1,0,18,0,13.9,-0.3,0.79,'Not on time'
1,39,1,9991,0,1,133.1,Basic,Basic,Low-skilled,Low-skilled,143.2,0,0,0,1,1,0,35,0,11.1,0.6,2.02,'Not on time'
1,17,2,9254,1,1,130,Basic,Basic,Clerical/service,'Manual skilled',123.4,1,0,0,1,1,0,30,0,7.6,2.6,0.32,'Not on time'
1,39,1,9991,0,1,150,Secondary,Basic,Clerical/service,'Manual skilled',123,0,0,0,1,1,0,27,0,12.7,3.7,-1.7,'Not on time'
1,1,4,171,1,1,132,Secondary,Basic,Clerical/service,Clerical/service,138,1,0,1,0,1,0,19,0,15.5,2.8,-4.06,'Not on time'
1,1,4,9147,1,1,120,Basic,Basic,Clerical/service,Other/unknown,111.3,0,0,0,1,1,0,20,0,12.4,0.5,1.79,'Not on time'
1,44,1,9085,1,39,140,Secondary,Secondary,Clerical/service,'Manual skilled',140,1,0,1,1,0,0,22,0,13.9,-0.3,0.79,'Not on time'
1,5,3,9085,1,1,143,Basic,Basic,Other/unknown,Other/unknown,159.1,0,0,1,1,0,1,18,0,7.6,2.6,0.32,'Not on time'
1,17,2,9147,1,1,118,Basic,Secondary,Low-skilled,High-skilled,113.5,1,0,1,1,0,0,20,0,11.1,0.6,2.02,'Not on time'
1,51,1,9147,1,1,130,Secondary,Secondary,Clerical/service,Clerical/service,120,0,0,0,1,0,0,21,0,11.1,0.6,2.02,'Not on time'
1,43,1,9670,1,1,139,Higher,Basic,High-skilled,Clerical/service,120.8,0,0,0,1,0,0,19,0,15.5,2.8,-4.06,'Not on time'
2,39,1,9119,1,1,110,Basic,Basic,Other/unknown,Clerical/service,150,1,0,0,1,1,0,46,0,7.6,2.6,0.32,'Not on time'
1,1,1,9147,1,1,108,Higher,Higher,Low-skilled,Low-skilled,107,0,0,1,0,0,0,19,1,8.9,1.4,3.51,'Not on time'
1,5,2,9853,1,1,122,Basic,Basic,Clerical/service,Clerical/service,112.6,1,0,0,1,0,0,22,0,12.7,3.7,-1.7,'Not on time'
1,5,4,9119,1,1,115,Basic,Basic,Clerical/service,'Manual skilled',113.3,1,0,0,1,1,0,23,0,7.6,2.6,0.32,'Not on time'
1,39,1,9670,1,1,133.1,Basic,Basic,Low-skilled,'Manual skilled',122.9,0,0,1,0,1,0,25,0,13.9,-0.3,0.79,'Not on time'
1,1,1,9556,1,1,135,Secondary,Secondary,High-skilled,High-skilled,131.5,0,0,0,1,1,1,21,0,16.2,0.3,-0.92,'Not on time'
1,39,1,9003,1,1,133.1,Basic,Basic,Clerical/service,'Manual skilled',130,0,0,1,0,1,0,32,0,16.2,0.3,-0.92,'Not on time'
1,17,1,9147,1,1,114,Basic,Basic,Low-skilled,'Manual skilled',107.7,0,0,0,1,0,0,19,0,10.8,1.4,1.74,'Not on time'
2,39,1,9991,0,1,140,Basic,Basic,Low-skilled,Low-skilled,120,0,0,0,0,0,0,38,0,12.7,3.7,-1.7,'Not on time'
1,39,1,9500,1,19,133.1,Basic,Basic,Low-skilled,'Manual skilled',120,0,0,0,0,0,1,39,0,16.2,0.3,-0.92,'Not on time'
1,1,1,9238,1,1,133.1,Basic,Basic,Other/unknown,Other/unknown,137,1,0,0,1,0,0,19,0,7.6,2.6,0.32,'Not on time'
1,44,1,9991,0,39,150,Basic,Basic,'Manual skilled','Manual skilled',150,0,0,0,1,0,0,31,0,9.4,-0.8,-3.12,'Not on time'
1,17,2,9773,1,1,133.1,Higher,Higher,Other/unknown,High-skilled,125.8,1,0,0,0,1,1,22,0,7.6,2.6,0.32,'Not on time'
1,17,4,9670,1,1,125,Secondary,Secondary,Clerical/service,Other/unknown,125.4,1,0,0,1,1,0,19,0,7.6,2.6,0.32,'Not on time'
1,39,1,9003,1,12,133.1,Basic,Basic,Low-skilled,Other/unknown,120,0,0,0,1,1,0,58,0,13.9,-0.3,0.79,'Not on time'
1,17,3,9119,1,1,120,Secondary,Basic,Low-skilled,High-skilled,116.9,1,0,1,0,1,0,18,0,8.9,1.4,3.51,'Not on time'
1,1,1,9147,1,1,128,Secondary,Secondary,High-skilled,Other/unknown,116.5,0,0,0,1,1,0,19,0,7.6,2.6,0.32,'Not on time'
1,1,3,9500,1,1,113,Higher,Secondary,High-skilled,High-skilled,107.8,1,0,0,1,0,1,20,0,12.4,0.5,1.79,'Not on time'
1,17,2,9238,1,1,136,Secondary,Higher,High-skilled,Clerical/service,126.6,1,0,0,1,0,0,18,0,11.1,0.6,2.02,'Not on time'
1,1,1,9853,1,1,120,Basic,Basic,Clerical/service,'Manual skilled',115.1,0,0,0,1,0,1,18,0,15.5,2.8,-4.06,'Not on time'
1,7,1,9991,0,40,120,Secondary,Basic,Clerical/service,Low-skilled,120,0,0,0,1,0,0,24,0,12.4,0.5,1.79,'Not on time'
1,53,1,9238,1,42,130,Secondary,Basic,Clerical/service,Clerical/service,128.3,0,0,1,0,0,0,23,0,8.9,1.4,3.51,'Not on time'
1,2,1,9853,1,1,120,Basic,Basic,Low-skilled,Low-skilled,122.5,0,0,0,0,0,0,28,0,15.5,2.8,-4.06,'Not on time'
1,17,2,9853,1,1,114,Secondary,Secondary,Clerical/service,Other/unknown,108.8,1,0,0,1,0,0,18,0,13.9,-0.3,0.79,'Not on time'
1,17,1,9670,1,3,110,Secondary,Higher,Clerical/service,'Manual skilled',106.5,1,0,1,0,0,0,20,0,10.8,1.4,1.74,'Not on time'
1,1,4,171,1,1,139,Basic,Basic,Low-skilled,Low-skilled,127.8,1,0,0,1,0,0,19,0,10.8,1.4,1.74,'Not on time'
1,1,1,9070,1,1,160,Higher,Basic,High-skilled,Low-skilled,152,1,0,0,0,0,0,19,0,10.8,1.4,1.74,'Not on time'
1,44,1,171,1,39,110,Basic,Basic,Clerical/service,'Manual skilled',108.3,0,0,0,0,0,0,26,0,12.4,0.5,1.79,'Not on time'
1,1,1,171,1,1,131,Basic,Basic,Clerical/service,Clerical/service,132.8,1,0,0,1,0,0,18,0,7.6,2.6,0.32,'Not on time'
1,1,1,9147,1,1,118,Secondary,Higher,Other/unknown,Other/unknown,117.3,1,0,0,1,0,0,19,0,8.9,1.4,3.51,'Not on time'
1,17,2,9773,1,1,139,Higher,Secondary,High-skilled,'Manual skilled',124,1,0,0,1,0,1,20,0,15.5,2.8,-4.06,'Not on time'
6,39,1,9500,1,1,133.1,Basic,Basic,Low-skilled,Low-skilled,110,0,0,0,1,0,0,36,0,16.2,0.3,-0.92,'Not on time'
1,7,2,9130,1,3,140,Unknown,Unknown,Other/unknown,Other/unknown,140,0,0,0,1,0,0,25,0,10.8,1.4,1.74,'Not on time'
1,39,1,9238,1,1,140,Unknown,Unknown,Other/unknown,Other/unknown,114,1,0,0,0,0,0,28,0,9.4,-0.8,-3.12,'Not on time'
1,17,1,9238,1,1,123,Secondary,Secondary,Low-skilled,Low-skilled,113.2,0,0,0,1,0,1,20,0,15.5,2.8,-4.06,'Not on time'
1,39,1,9991,0,1,133.1,Basic,Basic,'Manual skilled',Clerical/service,125.7,0,0,0,1,0,0,26,0,10.8,1.4,1.74,'Not on time'
1,39,1,9119,1,19,133.1,Secondary,Basic,Clerical/service,Clerical/service,100,0,0,0,1,1,0,25,0,13.9,-0.3,0.79,'Not on time'
1,1,2,9853,1,1,124,Basic,Basic,Clerical/service,High-skilled,118.1,1,0,0,0,0,0,18,0,9.4,-0.8,-3.12,'Not on time'
1,53,1,9991,0,1,140,Basic,Basic,Low-skilled,Low-skilled,135,0,0,1,1,0,0,23,0,8.9,1.4,3.51,'Not on time'
2,39,1,9147,1,1,133.1,Basic,Basic,Low-skilled,Low-skilled,140,0,0,0,0,0,0,35,0,9.4,-0.8,-3.12,'Not on time'
1,17,2,9119,1,1,120,Secondary,Basic,Low-skilled,'Manual skilled',117.2,0,0,0,1,1,1,18,0,11.1,0.6,2.02,'Not on time'
1,39,1,9500,1,1,140,Basic,Basic,Low-skilled,'Manual skilled',132.8,0,0,0,1,1,0,35,0,12.4,0.5,1.79,'Not on time'
1,1,1,9670,1,1,127,Basic,Secondary,Clerical/service,'Manual skilled',118.3,1,0,0,1,0,0,18,0,13.9,-0.3,0.79,'Not on time'
1,17,3,9147,1,1,125,Higher,Basic,High-skilled,Other/unknown,118.7,1,0,0,1,0,0,18,0,13.9,-0.3,0.79,'Not on time'
1,1,1,9238,1,1,107,Basic,Basic,'Manual skilled','Manual skilled',103.5,1,0,0,1,0,0,20,0,16.2,0.3,-0.92,'Not on time'
1,17,1,9070,1,1,122,Secondary,Secondary,Clerical/service,'Manual skilled',123.8,1,0,1,0,0,1,18,0,12.7,3.7,-1.7,'Not on time'
1,1,1,9085,1,1,132,Secondary,Secondary,Clerical/service,Clerical/service,124.3,0,0,0,1,0,0,20,0,13.9,-0.3,0.79,'Not on time'
1,1,4,9119,1,1,120,Higher,Secondary,High-skilled,Clerical/service,116.9,0,0,0,1,1,0,18,0,8.9,1.4,3.51,'Not on time'
1,7,1,9556,1,3,130,Secondary,Basic,Clerical/service,'Manual skilled',130,0,0,0,0,1,0,23,0,10.8,1.4,1.74,'Not on time'
1,39,1,9500,1,1,133.1,Basic,Basic,Low-skilled,Low-skilled,128,1,0,0,0,1,0,32,0,16.2,0.3,-0.92,'Not on time'
1,1,1,171,1,1,131,Basic,Basic,Low-skilled,Low-skilled,134.9,1,0,1,1,0,0,20,0,16.2,0.3,-0.92,'Not on time'
1,1,2,9773,1,1,132,Basic,Secondary,Low-skilled,Low-skilled,124.3,1,0,0,1,0,0,19,0,10.8,1.4,1.74,'Not on time'
1,39,1,9130,1,1,114,Basic,Basic,Low-skilled,Other/unknown,120,0,0,0,1,0,0,24,0,11.1,0.6,2.02,'Not on time'
3,17,1,9238,1,1,138,Basic,Basic,Low-skilled,Low-skilled,133.5,1,0,0,1,0,1,21,0,12.7,3.7,-1.7,'Not on time'
1,15,1,9119,1,1,160,Secondary,Higher,Clerical/service,Clerical/service,160,0,0,1,1,0,0,19,1,8.9,1.4,3.51,'Not on time'
1,44,1,9003,1,39,140,Basic,Basic,Low-skilled,Clerical/service,140,0,0,0,1,1,0,20,0,12.4,0.5,1.79,'Not on time'
1,1,1,9147,1,1,123,Secondary,Basic,Clerical/service,Clerical/service,117.8,0,0,0,1,1,0,20,0,8.9,1.4,3.51,'Not on time'
1,1,3,9670,1,1,121,Higher,Basic,High-skilled,'Manual skilled',122.4,1,0,0,1,1,0,19,0,9.4,-0.8,-3.12,'Not on time'
1,17,1,9147,1,1,120,Higher,Basic,High-skilled,'Manual skilled',124.2,1,0,0,1,1,0,18,0,13.9,-0.3,0.79,'Not on time'
2,39,1,9003,1,1,133.1,Secondary,Basic,Clerical/service,Clerical/service,120,0,0,1,0,1,0,25,0,15.5,2.8,-4.06,'Not on time'
1,44,1,9130,1,39,110,Higher,Higher,High-skilled,High-skilled,110,1,0,0,1,1,0,20,0,13.9,-0.3,0.79,'Not on time'
1,39,1,9500,1,40,130,Basic,Basic,Low-skilled,'Manual skilled',130,0,0,0,1,0,0,27,0,12.7,3.7,-1.7,'Not on time'
2,39,1,9991,0,1,133.1,Basic,Basic,Low-skilled,Other/unknown,150,0,0,0,1,1,0,47,0,9.4,-0.8,-3.12,'Not on time'
1,39,1,9991,0,1,120,Basic,Basic,Low-skilled,Low-skilled,115,1,0,0,1,1,0,27,0,12.7,3.7,-1.7,'Not on time'
1,10,1,9500,1,1,140,Higher,Higher,High-skilled,Low-skilled,140,1,0,1,0,0,0,23,1,12.7,3.7,-1.7,'Not on time'
1,18,5,9853,1,1,121,Basic,Basic,'Manual skilled','Manual skilled',117.5,1,0,1,0,0,0,20,0,10.8,1.4,1.74,'Not on time'
1,7,1,9130,1,2,133.1,Higher,Secondary,Clerical/service,Low-skilled,100,0,0,0,1,1,0,35,1,8.9,1.4,3.51,'Not on time'
5,39,1,9500,1,1,110,Basic,Basic,Low-skilled,Low-skilled,110,0,0,0,0,0,0,37,0,12.7,3.7,-1.7,'Not on time'
1,17,1,9130,1,1,137,Basic,Basic,Clerical/service,'Manual skilled',130,1,0,0,1,0,0,21,0,12.4,0.5,1.79,'Not on time'
2,1,1,8014,0,1,121,Basic,Basic,Low-skilled,Low-skilled,114.4,1,0,0,1,0,0,45,0,7.6,2.6,0.32,'Not on time'
1,39,1,9991,0,1,100,Basic,Basic,Clerical/service,Clerical/service,120.7,0,0,0,1,0,0,28,0,7.6,2.6,0.32,'Not on time'
1,17,1,9853,1,1,119,Basic,Basic,Low-skilled,Low-skilled,125,1,0,0,1,0,1,21,0,10.8,1.4,1.74,'Not on time'
1,17,4,171,1,1,172,Higher,Secondary,High-skilled,Other/unknown,155.6,1,0,0,1,1,0,19,0,9.4,-0.8,-3.12,'Not on time'
1,1,2,9500,1,1,133.1,Basic,Basic,Low-skilled,Low-skilled,99,1,0,0,1,1,0,22,0,16.2,0.3,-0.92,'Not on time'
1,39,1,9003,1,19,133.1,Secondary,Basic,Low-skilled,'Manual skilled',120,0,0,1,0,1,0,27,0,8.9,1.4,3.51,'Not on time'
1,39,1,8014,0,15,133.1,Unknown,Unknown,Other/unknown,Other/unknown,100,1,0,0,0,0,0,37,0,9.4,-0.8,-3.12,'Not on time'
2,39,1,9556,1,1,100,Basic,Basic,Low-skilled,Low-skilled,120,0,0,0,1,0,0,47,0,12.7,3.7,-1.7,'Not on time'
1,39,1,9119,1,1,120,Basic,Basic,Low-skilled,'Manual skilled',100,0,0,1,1,1,0,24,0,16.2,0.3,-0.92,'Not on time'
1,1,2,171,1,1,120,Higher,Basic,Clerical/service,'Manual skilled',119.7,1,0,0,1,0,0,21,0,8.9,1.4,3.51,'Not on time'
1,1,2,9085,1,1,130,Basic,Basic,Low-skilled,'Manual skilled',129,0,0,0,1,0,0,20,0,7.6,2.6,0.32,'Not on time'
1,44,1,9130,1,39,130,Higher,Secondary,Clerical/service,High-skilled,130,1,0,0,0,0,0,21,0,16.2,0.3,-0.92,'Not on time'
1,1,1,9773,1,1,117,Secondary,Basic,Clerical/service,Clerical/service,109.3,0,0,0,1,1,0,19,0,7.6,2.6,0.32,'Not on time'
1,43,4,171,1,1,136,Basic,Basic,Low-skilled,Low-skilled,123.8,1,0,0,1,1,0,19,0,7.6,2.6,0.32,'Not on time'
1,39,1,9085,1,1,130,Unknown,Secondary,Other/unknown,High-skilled,128.2,0,0,0,1,1,0,25,0,7.6,2.6,0.32,'Not on time'
1,1,5,171,1,1,160,Secondary,Secondary,Clerical/service,Clerical/service,139.7,0,0,0,1,1,0,18,0,12.7,3.7,-1.7,'Not on time'
1,44,1,9085,1,39,140,Secondary,Higher,Low-skilled,Clerical/service,140,0,0,1,0,0,0,24,0,12.4,0.5,1.79,'Not on time'
1,44,1,9130,1,39,130,Basic,Basic,Clerical/service,Low-skilled,130,1,0,0,1,0,1,20,0,16.2,0.3,-0.92,'Not on time'
1,1,1,9147,1,1,118,Secondary,Secondary,Low-skilled,Low-skilled,111,0,0,0,0,1,0,21,0,10.8,1.4,1.74,'Not on time'
1,1,1,9130,1,1,121,Higher,Basic,High-skilled,Low-skilled,115.4,1,0,0,1,1,0,18,0,15.5,2.8,-4.06,'Not on time'
1,39,1,9003,1,1,130,Basic,Secondary,Low-skilled,'Manual skilled',126.1,1,0,0,0,1,0,27,0,15.5,2.8,-4.06,'Not on time'
1,44,1,9119,1,39,150,Basic,Higher,Clerical/service,High-skilled,150,0,0,0,1,1,0,20,0,12.7,3.7,-1.7,'Not on time'
1,17,1,171,1,1,140,Secondary,Secondary,Clerical/service,'Manual skilled',146.3,1,0,0,1,0,1,18,1,12.7,3.7,-1.7,'Not on time'
1,51,1,9147,1,1,116,Higher,Higher,High-skilled,High-skilled,115.2,0,0,1,1,1,0,32,0,8.9,1.4,3.51,'Not on time'
1,1,3,9773,1,1,149,Secondary,Higher,Other/unknown,Other/unknown,148.7,0,0,0,0,1,0,20,0,10.8,1.4,1.74,'Not on time'
1,7,2,9500,1,3,140,Basic,Basic,Low-skilled,Low-skilled,138,0,0,0,1,1,0,28,0,16.2,0.3,-0.92,'Not on time'
1,39,1,9991,0,1,150,Higher,Higher,High-skilled,High-skilled,135.8,0,0,1,1,1,0,29,0,12.7,3.7,-1.7,'Not on time'
1,17,3,9254,1,1,114,Basic,Higher,Low-skilled,High-skilled,127.3,1,0,1,0,0,0,20,1,10.8,1.4,1.74,'Not on time'
1,1,3,9119,1,1,117,Secondary,Secondary,High-skilled,Clerical/service,111.1,0,0,0,1,1,1,19,0,11.1,0.6,2.02,'Not on time'
1,39,1,9003,1,19,133.1,Basic,Basic,High-skilled,High-skilled,140,0,0,1,1,1,0,24,0,16.2,0.3,-0.92,'Not on time'
1,17,1,9147,1,1,162,Secondary,Basic,Clerical/service,Clerical/service,138.6,1,0,0,1,0,0,19,0,12.7,3.7,-1.7,'Not on time'
1,1,1,9853,1,1,162,Basic,Basic,Low-skilled,'Manual skilled',142.8,0,0,1,1,0,0,18,0,12.7,3.7,-1.7,'Not on time'
1,1,2,9147,1,1,128,Higher,Secondary,High-skilled,High-skilled,121,1,1,1,1,1,0,20,0,16.2,0.3,-0.92,'Not on time'
1,7,1,9500,1,3,120,Secondary,Secondary,'Manual skilled',Other/unknown,120,1,0,0,0,1,0,23,0,12.7,3.7,-1.7,'Not on time'
2,39,1,9119,1,1,110,Basic,Basic,Other/unknown,Clerical/service,137,0,0,1,1,1,0,30,0,7.6,2.6,0.32,'Not on time'
1,39,1,9991,0,1,100,Basic,Basic,Low-skilled,'Manual skilled',153.5,0,0,1,0,1,0,31,0,12.4,0.5,1.79,'Not on time'
1,1,5,9500,1,1,143,Basic,Basic,Clerical/service,Clerical/service,123.3,1,0,0,1,1,0,18,0,7.6,2.6,0.32,'Not on time'
2,39,1,9500,1,1,133.1,Basic,Basic,Low-skilled,'Manual skilled',115.2,0,0,0,1,0,0,48,0,11.1,0.6,2.02,'Not on time'
1,1,1,9070,1,1,124,Basic,Basic,'Manual skilled',Low-skilled,132.1,1,0,0,1,0,0,19,0,7.6,2.6,0.32,'Not on time'
1,43,1,9670,1,1,151,Basic,Basic,High-skilled,High-skilled,100,0,0,1,1,0,0,20,0,13.9,-0.3,0.79,'Not on time'
1,39,1,9085,1,1,150,Basic,Basic,Clerical/service,Other/unknown,100,0,0,0,1,0,0,24,0,13.9,-0.3,0.79,'Not on time'
1,1,4,9500,1,1,140,Higher,Basic,High-skilled,High-skilled,133.8,1,0,0,1,0,0,17,0,10.8,1.4,1.74,'Not on time'
1,1,3,9085,1,1,135,Higher,Higher,Clerical/service,High-skilled,121,1,0,0,1,0,0,18,0,9.4,-0.8,-3.12,'Not on time'
1,1,4,9500,1,1,118,Basic,Basic,High-skilled,High-skilled,110,1,0,0,1,0,0,19,0,11.1,0.6,2.02,'Not on time'
1,39,1,8014,0,1,120,Secondary,Secondary,Clerical/service,'Manual skilled',119.5,0,0,1,1,0,0,25,1,8.9,1.4,3.51,'Not on time'
1,17,5,9853,1,1,134,Basic,Basic,Clerical/service,'Manual skilled',122.1,1,0,0,1,0,1,18,0,10.8,1.4,1.74,'Not on time'
2,39,1,9003,1,1,133.1,Basic,Basic,Clerical/service,Clerical/service,107.5,0,0,0,0,0,0,35,0,15.5,2.8,-4.06,'Not on time'
2,39,1,9991,0,1,120,Basic,Basic,Low-skilled,Other/unknown,170,0,0,0,1,0,0,34,0,9.4,-0.8,-3.12,'Not on time'
1,17,1,9147,1,1,137,Secondary,Basic,Clerical/service,Low-skilled,131.4,1,0,0,1,1,0,22,0,7.6,2.6,0.32,'Not on time'
1,1,2,9773,1,1,127,Secondary,Basic,Clerical/service,Clerical/service,120.4,1,0,0,1,0,0,18,0,12.7,3.7,-1.7,'Not on time'
1,17,6,9147,1,1,118,Basic,Secondary,Low-skilled,'Manual skilled',117,1,0,0,0,1,0,23,0,9.4,-0.8,-3.12,'Not on time'
5,1,3,9085,1,1,133,Basic,Basic,Clerical/service,'Manual skilled',119.7,1,0,0,1,0,0,21,0,9.4,-0.8,-3.12,'Not on time'
1,1,2,9773,1,1,128,Unknown,Basic,High-skilled,Other/unknown,141,1,0,0,0,0,0,20,0,7.6,2.6,0.32,'Not on time'
1,17,1,9853,1,1,158,Basic,Basic,Clerical/service,Clerical/service,140.2,1,0,0,1,0,0,18,0,10.8,1.4,1.74,'Not on time'
1,17,3,9238,1,1,118,Secondary,Basic,Clerical/service,Other/unknown,112.4,1,0,0,1,0,0,19,0,16.2,0.3,-0.92,'Not on time'
1,1,1,9085,1,1,125,Basic,Basic,High-skilled,'Manual skilled',126.8,0,0,0,1,0,0,18,0,11.1,0.6,2.02,'Not on time'
1,44,1,9085,1,39,130,Higher,Secondary,High-skilled,Low-skilled,130,1,0,0,1,0,0,21,0,12.4,0.5,1.79,'Not on time'
1,1,1,9085,1,1,150,Secondary,Higher,Clerical/service,High-skilled,144.6,0,0,1,0,0,0,24,0,7.6,2.6,0.32,'Not on time'
1,1,1,9070,1,1,124,Basic,Basic,Clerical/service,Clerical/service,126.8,0,0,0,1,0,1,18,0,13.9,-0.3,0.79,'Not on time'
1,17,1,9119,1,1,142,Basic,Basic,Low-skilled,'Manual skilled',127.3,0,0,0,1,1,0,18,0,16.2,0.3,-0.92,'Not on time'
1,39,2,9556,1,1,133.1,Secondary,Secondary,Low-skilled,Other/unknown,100.5,0,0,0,1,1,0,24,0,11.1,0.6,2.02,'Not on time'
1,43,1,9147,1,1,130,Basic,Basic,Low-skilled,'Manual skilled',130.8,0,0,0,1,1,0,22,0,16.2,0.3,-0.92,'Not on time'
1,1,2,9773,1,1,133,Higher,Secondary,High-skilled,Clerical/service,130.2,0,0,0,1,1,0,19,0,8.9,1.4,3.51,'Not on time'
1,43,1,9003,1,1,119,Basic,Basic,Low-skilled,'Manual skilled',119,0,0,1,1,1,0,23,0,15.5,2.8,-4.06,'Not on time'
1,17,2,9254,1,1,118,Basic,Basic,Clerical/service,'Manual skilled',121.2,0,0,0,1,1,1,18,0,15.5,2.8,-4.06,'Not on time'
2,39,1,9991,0,1,130,Basic,Basic,Low-skilled,Low-skilled,127.8,0,0,0,1,1,0,37,0,7.6,2.6,0.32,'Not on time'
1,44,1,9119,1,1,130,Basic,Secondary,Low-skilled,'Manual skilled',129.4,1,0,1,0,1,0,23,0,13.9,-0.3,0.79,'Not on time'
1,39,1,9991,0,1,120,Basic,Basic,Clerical/service,Clerical/service,128.2,0,0,0,0,1,0,31,0,12.7,3.7,-1.7,'Not on time'
1,1,2,9670,1,1,122,Secondary,Basic,Clerical/service,Clerical/service,116.1,0,0,0,1,1,1,19,0,11.1,0.6,2.02,'Not on time'
1,18,1,9085,1,1,106,Secondary,Basic,High-skilled,Clerical/service,104.6,0,0,0,0,1,0,21,0,11.1,0.6,2.02,'Not on time'
2,7,1,9991,0,3,140,Unknown,Unknown,Other/unknown,Other/unknown,140,1,0,0,0,1,0,33,0,7.6,2.6,0.32,'Not on time'
1,1,1,9070,1,1,132,Secondary,Secondary,Clerical/service,Low-skilled,136.6,1,0,0,1,1,0,19,0,7.6,2.6,0.32,'Not on time'
2,42,1,9147,1,1,133.1,Basic,Basic,Low-skilled,Low-skilled,115.8,0,0,0,0,1,0,49,0,10.8,1.4,1.74,'Not on time'
1,17,1,171,1,1,132,Secondary,Basic,Clerical/service,Low-skilled,127.1,0,0,0,0,1,0,21,0,7.6,2.6,0.32,'Not on time'
1,1,1,9147,1,1,130,Basic,Basic,Low-skilled,Low-skilled,118.8,0,0,1,1,1,1,22,0,15.5,2.8,-4.06,'Not on time'
4,43,2,9991,0,38,133.1,Higher,Secondary,High-skilled,Low-skilled,125.4,0,0,0,1,1,0,39,0,10.8,1.4,1.74,'Not on time'
1,39,1,9991,0,1,130,Higher,Secondary,High-skilled,High-skilled,120.5,0,0,0,1,1,0,28,0,12.7,3.7,-1.7,'Not on time'
1,39,1,9500,1,1,110,Secondary,Basic,Low-skilled,Low-skilled,126,1,0,0,1,1,0,27,0,7.6,2.6,0.32,'Not on time'
1,43,5,8014,0,1,110,Unknown,Unknown,Other/unknown,Other/unknown,110,0,0,0,1,1,0,37,0,7.6,2.6,0.32,'Not on time'
1,17,5,9119,1,1,126,Basic,Basic,Clerical/service,Low-skilled,116.9,1,0,1,1,1,0,20,0,11.1,0.6,2.02,'Not on time'
1,39,1,9670,1,1,133.1,Basic,Basic,High-skilled,High-skilled,125.3,0,1,0,1,1,1,30,0,12.4,0.5,1.79,'Not on time'
1,42,1,9773,1,1,133.1,Basic,Secondary,Clerical/service,High-skilled,120,0,0,0,1,1,0,27,0,9.4,-0.8,-3.12,'Not on time'
1,39,1,9130,1,1,133.1,Secondary,Basic,Clerical/service,Clerical/service,120,1,0,0,1,1,0,29,0,10.8,1.4,1.74,'Not on time'
1,1,1,9670,1,1,95,Basic,Basic,Clerical/service,'Manual skilled',95,0,0,0,0,1,0,21,0,12.7,3.7,-1.7,'Not on time'
1,17,1,9119,1,1,127,Basic,Secondary,Clerical/service,Clerical/service,115.8,0,0,0,1,1,0,20,0,13.9,-0.3,0.79,'Not on time'
1,43,1,9003,1,1,130,Basic,Secondary,Clerical/service,Clerical/service,130,0,0,0,1,1,0,25,0,15.5,2.8,-4.06,'Not on time'
1,1,2,9773,1,1,135,Higher,Secondary,Clerical/service,Clerical/service,136.1,1,0,0,1,1,0,19,0,8.9,1.4,3.51,'Not on time'
1,18,1,9991,0,1,112,Higher,Higher,High-skilled,High-skilled,106.4,0,0,0,1,1,0,22,0,8.9,1.4,3.51,'Not on time'
1,43,2,9238,1,1,129,Unknown,Basic,Other/unknown,Clerical/service,118.9,1,0,0,1,1,0,22,0,9.4,-0.8,-3.12,'Not on time'
1,39,1,9003,1,1,133.1,Secondary,Basic,Low-skilled,'Manual skilled',130,0,0,0,1,1,0,29,0,16.2,0.3,-0.92,'Not on time'
1,42,1,9119,1,1,120,Unknown,Unknown,Other/unknown,Other/unknown,128.2,1,0,0,1,1,0,35,0,9.4,-0.8,-3.12,'Not on time'
1,7,1,9003,1,3,130,Secondary,Basic,Low-skilled,'Manual skilled',130,1,0,0,0,1,0,32,0,15.5,2.8,-4.06,'Not on time'
1,1,1,9853,1,1,133.1,Unknown,Unknown,Other/unknown,Other/unknown,142.8,0,0,0,1,1,0,20,0,7.6,2.6,0.32,'Not on time'
1,1,1,171,1,1,130,Secondary,Basic,Clerical/service,Low-skilled,118.1,0,0,1,0,1,0,18,0,9.4,-0.8,-3.12,'Not on time'
1,17,2,9119,1,1,135,Secondary,Basic,Clerical/service,Clerical/service,121,0,0,0,1,1,0,19,0,12.4,0.5,1.79,'Not on time'
2,39,1,9991,0,1,121,Basic,Basic,Low-skilled,Low-skilled,141.4,0,0,1,0,1,0,29,0,10.8,1.4,1.74,'Not on time'
2,39,2,9147,1,1,120,Basic,Basic,Low-skilled,Low-skilled,104.7,1,0,0,1,1,0,36,0,10.8,1.4,1.74,'Not on time'
2,39,1,8014,0,19,133.1,Basic,Basic,Low-skilled,Low-skilled,151.5,0,0,1,0,1,0,45,0,16.2,0.3,-0.92,'Not on time'
4,39,1,9670,1,1,110,Basic,Basic,Other/unknown,Other/unknown,107.2,0,0,0,1,1,0,42,0,12.7,3.7,-1.7,'Not on time'
1,51,1,8014,0,1,120,Secondary,Secondary,Clerical/service,Clerical/service,128.5,0,0,1,0,1,0,26,0,12.4,0.5,1.79,'Not on time'
1,15,1,9500,1,1,190,Higher,Higher,High-skilled,Clerical/service,190,1,0,0,1,0,0,18,1,12.4,0.5,1.79,'Not on time'
1,1,4,9070,1,1,143,Secondary,Secondary,Low-skilled,'Manual skilled',134.6,1,0,0,1,0,1,18,0,12.4,0.5,1.79,'Not on time'
1,1,1,9853,1,1,148,Basic,Basic,Clerical/service,Clerical/service,143.5,0,0,0,1,0,1,19,0,13.9,-0.3,0.79,'Not on time'
1,17,1,9991,0,1,160,Unknown,Unknown,Other/unknown,Other/unknown,161.8,1,0,1,1,1,0,33,0,7.6,2.6,0.32,'Not on time'
1,1,1,9773,1,1,156,Basic,Secondary,Clerical/service,Other/unknown,136.8,1,0,0,1,0,0,18,0,11.1,0.6,2.02,'Not on time'
1,44,1,9085,1,39,120,Basic,Basic,Low-skilled,Low-skilled,120,1,0,1,1,0,0,32,0,16.2,0.3,-0.92,'Not on time'
1,1,4,9147,1,1,133.1,Secondary,Basic,Clerical/service,'Manual skilled',106,1,0,0,1,0,0,24,0,12.7,3.7,-1.7,'Not on time'
1,39,1,9556,1,1,120,Basic,Basic,Clerical/service,Clerical/service,122.8,0,0,0,1,0,0,26,0,13.9,-0.3,0.79,'Not on time'
1,17,3,9853,1,1,118,Basic,Basic,'Manual skilled','Manual skilled',121.2,1,0,0,1,0,0,18,0,7.6,2.6,0.32,'Not on time'
1,1,1,9773,1,1,128,Basic,Secondary,Low-skilled,'Manual skilled',124.2,1,0,0,1,0,0,18,0,15.5,2.8,-4.06,'Not on time'
1,17,1,9853,1,1,160,Basic,Basic,Clerical/service,'Manual skilled',139,1,0,0,1,0,1,18,0,9.4,-0.8,-3.12,'Not on time'
1,1,1,9500,1,1,137,Secondary,Basic,Clerical/service,Clerical/service,125.3,0,0,0,1,1,0,19,0,7.6,2.6,0.32,'Not on time'
1,1,1,9670,1,1,132,Secondary,Basic,'Manual skilled',Clerical/service,129.9,1,0,0,1,1,0,20,0,12.4,0.5,1.79,'Not on time'
1,39,1,9991,0,1,133.1,Basic,Secondary,Clerical/service,Clerical/service,151.2,0,0,0,1,1,0,25,0,12.4,0.5,1.79,'Not on time'
1,1,1,9500,1,1,125,Basic,Basic,Low-skilled,'Manual skilled',118.3,0,0,0,1,1,0,20,0,10.8,1.4,1.74,'Not on time'
1,1,1,171,1,1,133.1,Basic,Basic,Clerical/service,Clerical/service,136,1,0,0,1,1,0,22,0,12.7,3.7,-1.7,'Not on time'
2,39,1,9773,1,1,110,Basic,Basic,Low-skilled,Other/unknown,140,0,0,1,0,1,0,43,0,10.8,1.4,1.74,'Not on time'
1,1,2,9254,1,1,120,Basic,Secondary,Low-skilled,'Manual skilled',117.2,0,0,0,1,1,0,21,0,15.5,2.8,-4.06,'Not on time'
2,39,1,9500,1,19,133.1,Basic,Basic,'Manual skilled','Manual skilled',170,0,0,0,1,1,0,36,0,16.2,0.3,-0.92,'Not on time'
1,42,1,9119,1,1,140,Basic,Basic,Other/unknown,Other/unknown,120,0,0,1,0,1,0,31,0,12.7,3.7,-1.7,'Not on time'
1,39,1,9254,1,19,133.1,Basic,Basic,High-skilled,High-skilled,101.5,0,0,1,0,1,0,34,0,15.5,2.8,-4.06,'Not on time'
1,17,1,9119,1,1,130,Basic,Basic,'Manual skilled',High-skilled,119.9,1,0,1,1,1,0,20,0,9.4,-0.8,-3.12,'Not on time'
4,39,1,9556,1,1,160,Basic,Higher,Low-skilled,High-skilled,130,0,0,0,1,0,0,25,0,12.7,3.7,-1.7,'Not on time'
1,17,2,9147,1,1,129,Higher,Higher,High-skilled,High-skilled,128.3,1,0,0,1,0,0,19,0,12.7,3.7,-1.7,'Not on time'
1,1,1,9500,1,1,131,Basic,Basic,Clerical/service,Clerical/service,122,1,0,0,1,0,0,20,0,12.7,3.7,-1.7,'Not on time'
1,42,1,9003,1,1,130,Higher,Higher,High-skilled,'Manual skilled',105.3,0,0,0,0,1,0,36,0,16.2,0.3,-0.92,'Not on time'
1,7,1,9991,0,40,130,Basic,Basic,Low-skilled,'Manual skilled',130,0,0,0,1,1,0,38,0,8.9,1.4,3.51,'Not on time'
1,39,1,9500,1,4,150,Higher,Basic,High-skilled,'Manual skilled',127,1,0,0,1,1,0,26,0,11.1,0.6,2.02,'Not on time'
1,1,1,9500,1,1,124,Secondary,Basic,Low-skilled,'Manual skilled',116.7,1,0,0,1,0,1,18,0,15.5,2.8,-4.06,'Not on time'
1,1,1,9853,1,1,125,Unknown,Basic,Low-skilled,Low-skilled,129.2,1,0,1,0,0,0,20,0,10.8,1.4,1.74,'Not on time'
1,39,1,9670,1,1,148,Basic,Basic,'Manual skilled','Manual skilled',130.9,0,0,1,0,1,0,24,0,10.8,1.4,1.74,'Not on time'
1,42,1,9119,1,1,120,Secondary,Secondary,Clerical/service,'Manual skilled',108.6,0,0,0,0,1,0,34,0,15.5,2.8,-4.06,'Not on time'
1,1,1,9147,1,1,129,Basic,Basic,Low-skilled,'Manual skilled',117.8,0,0,0,1,0,1,19,0,10.8,1.4,1.74,'Not on time'
1,17,1,9130,1,1,117,Basic,Basic,Clerical/service,Clerical/service,113.5,1,0,0,1,0,0,19,0,8.9,1.4,3.51,'Not on time'
1,1,2,9670,1,1,117,Basic,Basic,Low-skilled,Low-skilled,111.8,0,0,0,1,0,0,22,0,7.6,2.6,0.32,'Not on time'
4,1,1,9991,0,1,130,Basic,Basic,Low-skilled,Low-skilled,118.1,0,0,1,0,0,0,37,0,12.7,3.7,-1.7,'Not on time'
1,18,2,9773,1,1,109,Secondary,Secondary,Clerical/service,Clerical/service,109,1,0,0,0,0,0,20,0,8.9,1.4,3.51,'Not on time'
1,17,2,9773,1,1,115,Secondary,Secondary,Clerical/service,Clerical/service,119.6,1,0,0,1,0,1,22,0,7.6,2.6,0.32,'Not on time'
2,39,1,9991,0,12,133.1,Basic,Unknown,Other/unknown,Other/unknown,110.7,1,0,0,1,0,0,50,0,7.6,2.6,0.32,'Not on time'
4,39,1,8014,0,1,133.1,Basic,Basic,Clerical/service,'Manual skilled',144.5,0,0,0,1,0,0,45,0,16.2,0.3,-0.92,'Not on time'
1,39,1,9991,0,1,120,Basic,Basic,'Manual skilled','Manual skilled',147.8,0,0,0,1,0,0,40,0,13.9,-0.3,0.79,'Not on time'
1,17,2,9773,1,1,123,Secondary,Secondary,High-skilled,High-skilled,120.9,1,0,0,1,0,0,18,0,13.9,-0.3,0.79,'Not on time'
5,39,1,9003,1,19,133.1,Basic,Secondary,Low-skilled,Low-skilled,119.4,0,0,1,0,0,0,27,0,8.9,1.4,3.51,'Not on time'
1,1,3,9500,1,1,136,Secondary,Secondary,Clerical/service,Clerical/service,127,1,0,0,1,0,0,19,0,9.4,-0.8,-3.12,'Not on time'
1,43,1,9773,1,1,133.1,Unknown,Unknown,Other/unknown,Other/unknown,130,0,0,1,1,0,0,23,1,7.6,2.6,0.32,'Not on time'
2,39,2,9556,1,1,133.1,Secondary,Higher,Low-skilled,High-skilled,152.8,1,0,0,1,0,0,28,1,12.4,0.5,1.79,'Not on time'
1,39,1,171,1,1,140,Basic,Basic,Low-skilled,Low-skilled,100.8,0,1,0,1,0,0,26,0,16.2,0.3,-0.92,'Not on time'
1,17,4,9500,1,1,138,Higher,Secondary,High-skilled,High-skilled,133,1,0,0,1,0,0,18,0,9.4,-0.8,-3.12,'Not on time'
1,1,1,9085,1,1,135,Higher,Higher,High-skilled,High-skilled,133.6,1,0,0,0,0,0,22,0,9.4,-0.8,-3.12,'Not on time'
4,39,1,8014,0,1,138,Basic,Basic,Other/unknown,Other/unknown,127,0,0,0,0,0,0,37,0,10.8,1.4,1.74,'Not on time'
1,1,1,9130,1,1,137,Higher,Basic,High-skilled,Low-skilled,130.7,1,0,0,1,0,0,18,0,8.9,1.4,3.51,'Not on time'
1,1,4,9773,1,1,122,Higher,Secondary,Clerical/service,High-skilled,119.6,1,0,0,1,0,0,19,0,11.1,0.6,2.02,'Not on time'
1,17,5,9500,1,1,130,Basic,Secondary,Low-skilled,Clerical/service,128.8,1,0,0,1,0,0,18,0,11.1,0.6,2.02,'Not on time'
1,17,1,9085,1,1,137,Basic,Basic,Other/unknown,Other/unknown,122.3,0,0,0,1,0,1,19,0,7.6,2.6,0.32,'Not on time'
1,17,3,9670,1,1,110,Basic,Secondary,Clerical/service,Clerical/service,107.5,1,0,0,1,0,1,18,0,12.7,3.7,-1.7,'Not on time'
1,39,1,8014,0,38,133.1,Secondary,Secondary,Clerical/service,Clerical/service,107.5,0,0,1,0,1,0,29,0,8.9,1.4,3.51,'Not on time'
1,39,1,9670,1,1,100,Secondary,Secondary,Clerical/service,Clerical/service,120,0,0,0,1,1,0,26,0,9.4,-0.8,-3.12,'Not on time'
1,39,1,9991,0,1,150,Basic,Basic,Low-skilled,'Manual skilled',150,0,0,0,1,0,0,27,0,15.5,2.8,-4.06,'Not on time'
1,17,1,8014,0,1,127,Basic,Basic,Clerical/service,'Manual skilled',115.8,0,0,0,1,0,0,24,0,10.8,1.4,1.74,'Not on time'
1,42,1,171,1,1,132,Secondary,Secondary,High-skilled,Clerical/service,132,1,0,0,1,0,0,19,0,12.7,3.7,-1.7,'Not on time'
2,1,1,9991,0,2,120,Basic,Basic,'Manual skilled',High-skilled,129.2,0,0,0,1,0,0,31,0,9.4,-0.8,-3.12,'Not on time'
1,1,1,9853,1,1,129,Basic,Basic,High-skilled,'Manual skilled',126.9,1,0,0,1,0,1,19,0,7.6,2.6,0.32,'Not on time'
1,1,1,171,1,1,159,Higher,Secondary,Clerical/service,Clerical/service,162.2,1,0,1,0,0,0,18,0,12.4,0.5,1.79,'Not on time'
1,43,1,9070,1,1,135,Basic,Basic,Low-skilled,Low-skilled,122.8,1,0,0,1,1,1,20,0,10.8,1.4,1.74,'Not on time'
1,17,3,9254,1,1,127,Secondary,Basic,Clerical/service,'Manual skilled',116.9,1,0,1,1,0,0,18,0,12.4,0.5,1.79,'Not on time'
1,39,1,9130,1,19,133.1,Basic,Higher,Low-skilled,High-skilled,140,1,0,1,1,1,0,24,0,16.2,0.3,-0.92,'Not on time'
1,17,1,9147,1,1,145,Basic,Basic,Clerical/service,Clerical/service,132.1,1,0,0,1,1,0,21,0,11.1,0.6,2.02,'Not on time'
1,42,1,9070,1,1,120,Higher,Higher,High-skilled,High-skilled,116.9,0,0,0,1,1,0,20,0,13.9,-0.3,0.79,'Not on time'
2,39,1,9238,1,42,170,Basic,Basic,'Manual skilled','Manual skilled',159.5,0,0,0,1,1,0,33,0,8.9,1.4,3.51,'Not on time'
1,1,1,9773,1,1,109,Higher,Higher,High-skilled,High-skilled,111.8,1,0,1,1,1,0,25,0,15.5,2.8,-4.06,'Not on time'
1,43,1,8014,0,1,148,Basic,Basic,Low-skilled,Low-skilled,134.7,0,0,0,1,0,0,23,0,15.5,2.8,-4.06,'Not on time'
1,39,1,9147,1,12,133.1,Basic,Basic,'Manual skilled',Low-skilled,118.2,0,0,0,1,0,0,31,0,10.8,1.4,1.74,'Not on time'
4,39,1,9991,0,1,133.1,Basic,Basic,Low-skilled,Low-skilled,130.4,0,0,0,1,0,0,30,0,12.7,3.7,-1.7,'Not on time'
1,43,1,9130,1,6,133.1,Secondary,Basic,Clerical/service,Other/unknown,123.3,1,0,0,1,0,1,21,0,7.6,2.6,0.32,'Not on time'
2,39,1,9500,1,1,133.1,Basic,Basic,Low-skilled,'Manual skilled',118.9,0,0,0,1,0,0,30,0,13.9,-0.3,0.79,'Not on time'
1,51,1,33,1,1,130,Basic,Basic,Low-skilled,Low-skilled,117.7,0,0,0,1,0,0,34,0,11.1,0.6,2.02,'Not on time'
1,7,1,9556,1,43,160,Basic,Basic,Low-skilled,Low-skilled,160,0,0,0,1,1,0,36,0,11.1,0.6,2.02,'Not on time'
1,17,3,9500,1,1,132,Basic,Higher,Low-skilled,Clerical/service,130.8,1,0,0,1,0,0,18,0,10.8,1.4,1.74,'Not on time'
1,1,1,171,1,1,138,Basic,Basic,Clerical/service,High-skilled,130.7,1,0,0,1,0,0,18,0,13.9,-0.3,0.79,'Not on time'
1,43,1,9991,0,1,100,Higher,Basic,High-skilled,High-skilled,117.9,0,0,0,0,1,0,40,0,10.8,1.4,1.74,'Not on time'
1,17,3,9119,1,1,115,Higher,Secondary,High-skilled,High-skilled,116.1,1,0,0,0,1,0,18,0,12.4,0.5,1.79,'Not on time'
1,17,1,9147,1,1,110,Secondary,Secondary,Clerical/service,Clerical/service,99,0,0,0,1,1,0,21,0,10.8,1.4,1.74,'Not on time'
1,44,1,9003,1,39,140,Basic,Basic,Clerical/service,Clerical/service,140,1,0,0,0,1,0,21,0,16.2,0.3,-0.92,'Not on time'
1,17,1,9670,1,1,138,Secondary,Secondary,Clerical/service,'Manual skilled',123,0,0,1,0,1,0,20,0,13.9,-0.3,0.79,'Not on time'
1,39,1,9147,1,12,133.1,Basic,Basic,Low-skilled,Low-skilled,140,0,0,0,1,1,0,29,0,9.4,-0.8,-3.12,'Not on time'
2,39,2,9003,1,19,133.1,Basic,Basic,Clerical/service,High-skilled,110,0,0,0,0,1,0,32,0,15.5,2.8,-4.06,'Not on time'
1,17,4,9670,1,1,126,Secondary,Secondary,Clerical/service,'Manual skilled',115.2,0,0,0,0,0,0,19,0,10.8,1.4,1.74,'Not on time'
1,1,6,9500,1,1,145,Basic,Basic,Low-skilled,Low-skilled,132.3,1,0,0,1,0,1,19,0,10.8,1.4,1.74,'Not on time'
1,26,1,9147,1,2,133.1,Unknown,Unknown,Other/unknown,Other/unknown,121.5,1,0,0,1,0,0,31,0,7.6,2.6,0.32,'Not on time'
1,43,1,9147,1,1,131,Higher,Basic,High-skilled,Low-skilled,126.1,0,0,0,1,0,0,18,0,16.2,0.3,-0.92,'Not on time'
1,5,1,9670,1,1,135,Secondary,Secondary,Clerical/service,Clerical/service,140.3,1,0,0,1,0,0,19,0,12.4,0.5,1.79,'Not on time'
1,1,1,9254,1,1,133.1,Basic,Basic,High-skilled,High-skilled,98.6,0,0,0,1,0,0,21,0,12.7,3.7,-1.7,'Not on time'
2,43,2,9147,1,1,160,Basic,Basic,Low-skilled,Low-skilled,96,0,0,0,0,0,0,29,0,10.8,1.4,1.74,'Not on time'
1,1,1,9773,1,1,143,Secondary,Basic,'Manual skilled','Manual skilled',136.7,1,0,0,1,0,1,18,0,11.1,0.6,2.02,'Not on time'
1,1,2,9070,1,1,134,Secondary,Basic,High-skilled,High-skilled,127.7,1,0,0,0,0,0,18,0,13.9,-0.3,0.79,'Not on time'
4,43,4,9991,0,12,133.1,Basic,Basic,Low-skilled,Low-skilled,153,0,0,0,0,0,0,40,0,7.6,2.6,0.32,'Not on time'
1,1,1,9147,1,1,124,Basic,Basic,High-skilled,Other/unknown,128.6,1,0,0,1,0,0,20,0,7.6,2.6,0.32,'Not on time'
1,1,5,9119,1,1,132,Basic,Basic,Clerical/service,High-skilled,119.1,0,0,0,1,0,0,18,0,9.4,-0.8,-3.12,'Not on time'
1,39,1,9500,1,1,133.1,Basic,Basic,'Manual skilled','Manual skilled',124.5,0,0,0,0,1,0,38,0,11.1,0.6,2.02,'Not on time'
2,43,3,9991,0,1,120,Basic,Basic,Low-skilled,Low-skilled,128.2,1,0,0,1,1,0,32,0,7.6,2.6,0.32,'Not on time'
1,39,1,9003,1,1,160,Secondary,Basic,Low-skilled,Low-skilled,140,0,0,0,1,1,0,27,0,11.1,0.6,2.02,'Not on time'
1,1,1,9147,1,1,130,Basic,Basic,Low-skilled,'Manual skilled',119.5,1,0,0,1,1,1,18,0,12.4,0.5,1.79,'Not on time'
1,39,1,9670,1,1,120,Basic,Basic,Other/unknown,Clerical/service,114,1,0,0,1,1,0,29,0,7.6,2.6,0.32,'Not on time'
1,43,1,9991,0,1,120,Basic,Basic,Low-skilled,Low-skilled,120,1,0,1,1,1,0,34,0,10.8,1.4,1.74,'Not on time'
1,43,1,9500,1,1,120,Higher,Higher,Clerical/service,Clerical/service,136.6,0,0,0,1,1,0,23,0,13.9,-0.3,0.79,'Not on time'
1,39,1,9991,0,1,120,Unknown,Unknown,Other/unknown,Other/unknown,120.5,1,0,0,1,1,0,30,0,7.6,2.6,0.32,'Not on time'
1,17,1,9119,1,1,130,Secondary,Higher,Clerical/service,High-skilled,123,0,0,0,1,1,0,18,0,9.4,-0.8,-3.12,'Not on time'
2,43,1,9130,1,9,133.1,Unknown,Unknown,Other/unknown,Other/unknown,128.2,0,0,0,1,1,0,28,0,7.6,2.6,0.32,'Not on time'
1,44,1,9119,1,39,150,Basic,Basic,Low-skilled,Low-skilled,150,1,0,1,1,1,0,20,0,12.4,0.5,1.79,'Not on time'
2,39,1,9500,1,19,133.1,Basic,Basic,Clerical/service,Clerical/service,100,0,0,0,1,1,0,33,0,16.2,0.3,-0.92,'Not on time'
1,39,1,9085,1,19,133.1,Higher,Secondary,High-skilled,Clerical/service,103,0,0,0,1,1,0,25,0,10.8,1.4,1.74,'Not on time'
1,39,1,9991,0,1,133.1,Basic,Basic,Low-skilled,Low-skilled,154.4,0,0,0,1,1,0,27,0,10.8,1.4,1.74,'Not on time'
1,1,3,9147,1,1,124,Secondary,Secondary,Clerical/service,High-skilled,116.7,1,0,0,1,1,0,19,0,7.6,2.6,0.32,'Not on time'
1,44,1,9003,1,39,140,Basic,Basic,Low-skilled,Other/unknown,140,0,0,0,1,1,0,19,0,13.9,-0.3,0.79,'Not on time'
1,44,1,9070,1,39,100,Secondary,Secondary,Clerical/service,Clerical/service,106,0,0,0,1,1,0,21,0,12.4,0.5,1.79,'Not on time'
1,44,1,9085,1,39,140,Basic,Basic,Clerical/service,'Manual skilled',140,1,0,0,1,1,0,19,0,12.4,0.5,1.79,'Not on time'
1,1,1,9238,1,1,133,Basic,Basic,Low-skilled,'Manual skilled',131.3,1,0,1,1,0,0,18,0,8.9,1.4,3.51,'Not on time'
1,1,6,9773,1,1,145,Secondary,Basic,Clerical/service,Clerical/service,131,1,0,0,1,0,1,18,0,7.6,2.6,0.32,'Not on time'
1,1,2,9254,1,1,112,Basic,Basic,'Manual skilled','Manual skilled',106.1,1,0,0,0,0,0,20,0,11.1,0.6,2.02,'Not on time'
1,44,1,9085,1,39,140,Secondary,Basic,Low-skilled,Low-skilled,140,1,0,0,1,0,0,20,0,16.2,0.3,-0.92,'Not on time'
2,42,1,9070,1,1,170,Basic,Secondary,Other/unknown,Clerical/service,148.5,0,0,0,1,1,0,47,0,9.4,-0.8,-3.12,'Not on time'
1,39,1,9991,0,1,110,Basic,Basic,Low-skilled,Low-skilled,121.8,0,0,0,0,1,0,36,0,12.7,3.7,-1.7,'Not on time'
1,43,1,9130,1,1,130,Secondary,Secondary,High-skilled,High-skilled,130,1,0,0,1,1,0,33,0,9.4,-0.8,-3.12,'Not on time'
1,39,1,9991,0,19,133.1,Basic,Basic,Low-skilled,Low-skilled,149.4,0,0,0,0,1,0,29,0,11.1,0.6,2.02,'Not on time'
1,1,1,9147,1,1,125,Secondary,Secondary,Clerical/service,High-skilled,134.1,1,0,0,1,1,0,20,0,8.9,1.4,3.51,'Not on time'
1,44,1,171,1,39,160,Basic,Basic,Low-skilled,Low-skilled,160,1,0,1,1,1,1,21,0,15.5,2.8,-4.06,'Not on time'
1,44,1,9130,1,39,140,Higher,Higher,High-skilled,Other/unknown,140,1,0,0,1,1,0,20,0,12.7,3.7,-1.7,'Not on time'
1,39,1,9003,1,12,133.1,Basic,Secondary,Low-skilled,High-skilled,130,0,0,0,1,1,0,29,0,15.5,2.8,-4.06,'Not on time'
1,51,1,9070,1,1,122,Basic,Basic,Low-skilled,Low-skilled,128.8,1,0,0,1,1,0,21,0,8.9,1.4,3.51,'Not on time'
1,17,3,9119,1,1,131,Basic,Basic,Low-skilled,'Manual skilled',118.4,0,0,0,1,1,0,18,0,7.6,2.6,0.32,'Not on time'
1,1,3,9500,1,1,148,Secondary,Basic,Clerical/service,Clerical/service,135.1,1,0,1,1,0,0,18,0,13.9,-0.3,0.79,'Not on time'
1,7,1,9238,1,3,130,Secondary,Secondary,Clerical/service,Other/unknown,125.1,0,0,1,0,0,0,27,0,16.2,0.3,-0.92,'Not on time'
1,39,1,9085,1,19,133.1,Basic,Basic,Low-skilled,Low-skilled,100,1,0,1,0,0,1,26,0,13.9,-0.3,0.79,'Not on time'
1,7,1,8014,0,40,120,Basic,Basic,Low-skilled,High-skilled,120,0,0,0,1,0,0,36,0,8.9,1.4,3.51,'Not on time'
1,17,1,9238,1,1,140,Secondary,Higher,Clerical/service,High-skilled,124.6,1,0,1,0,1,0,20,0,8.9,1.4,3.51,'Not on time'
1,43,2,9670,1,1,135,Higher,Basic,High-skilled,'Manual skilled',123.5,1,0,0,1,1,0,22,0,16.2,0.3,-0.92,'Not on time'
4,27,1,9070,1,2,130,Unknown,Unknown,Other/unknown,Other/unknown,130,0,0,0,1,0,0,53,0,7.6,2.6,0.32,'Not on time'
1,1,1,9238,1,1,117,Basic,Basic,Low-skilled,Low-skilled,111.8,1,0,0,1,1,0,19,0,8.9,1.4,3.51,'Not on time'
1,44,1,9130,1,39,130,Basic,Basic,Low-skilled,Low-skilled,150,0,0,0,1,1,0,24,0,11.1,0.6,2.02,'Not on time'
1,1,1,9085,1,1,148,Basic,Basic,Clerical/service,Low-skilled,131.6,0,0,0,1,1,1,18,0,11.1,0.6,2.02,'Not on time'
1,43,1,9773,1,1,121,Secondary,Higher,Low-skilled,High-skilled,123.8,0,0,0,0,1,0,22,0,10.8,1.4,1.74,'Not on time'
1,1,1,9238,1,1,125,Basic,Basic,'Manual skilled','Manual skilled',118.7,0,0,0,1,1,0,20,0,15.5,2.8,-4.06,'Not on time'
1,17,1,9773,1,1,127,Secondary,Secondary,High-skilled,High-skilled,129.8,0,0,0,0,1,0,20,0,10.8,1.4,1.74,'Not on time'
2,1,1,9003,1,1,120,Basic,Basic,Low-skilled,Low-skilled,120.5,1,0,1,1,1,0,35,0,15.5,2.8,-4.06,'Not on time'
1,18,1,9773,1,1,167,Basic,Basic,'Manual skilled','Manual skilled',153,1,0,0,1,1,1,18,0,8.9,1.4,3.51,'Not on time'
1,1,2,9070,1,1,128,Basic,Basic,High-skilled,High-skilled,123.5,1,1,0,0,1,0,19,0,9.4,-0.8,-3.12,'Not on time'
1,1,1,9254,1,1,128,Basic,Basic,'Manual skilled','Manual skilled',120,1,0,0,1,0,1,20,0,12.4,0.5,1.79,'Not on time'
1,1,6,9500,1,1,120,Secondary,Secondary,Low-skilled,'Manual skilled',114.8,1,0,0,1,0,0,21,1,11.1,0.6,2.02,'Not on time'
2,39,1,9147,1,1,140,Basic,Basic,Clerical/service,'Manual skilled',130,1,0,0,0,0,0,39,0,9.4,-0.8,-3.12,'Not on time'
2,43,1,9991,0,3,140,Basic,Basic,Low-skilled,Clerical/service,140,0,0,1,1,0,0,34,0,16.2,0.3,-0.92,'Not on time'
1,39,1,9003,1,1,140,Basic,Basic,Low-skilled,'Manual skilled',135.4,1,0,0,1,0,0,24,0,12.4,0.5,1.79,'Not on time'
1,1,3,9254,1,1,121,Basic,Basic,Low-skilled,Low-skilled,125.9,1,0,0,1,0,0,22,0,9.4,-0.8,-3.12,'Not on time'
1,17,4,9556,1,1,135,Basic,Basic,High-skilled,'Manual skilled',129,1,0,0,1,0,0,21,0,12.7,3.7,-1.7,'Not on time'
1,39,1,9085,1,1,133.1,Basic,Basic,Low-skilled,Low-skilled,120,0,0,0,0,0,0,32,0,11.1,0.6,2.02,'Not on time'
1,39,1,9003,1,1,135,Basic,Basic,Low-skilled,'Manual skilled',138.1,0,0,1,0,0,0,28,0,8.9,1.4,3.51,'Not on time'
1,17,6,9500,1,1,147,Secondary,Basic,Clerical/service,'Manual skilled',141.1,1,0,0,1,0,0,20,0,13.9,-0.3,0.79,'Not on time'
1,18,3,9853,1,1,128,Basic,Basic,Clerical/service,Low-skilled,116.8,1,0,0,0,1,0,19,0,10.8,1.4,1.74,'Not on time'
4,39,1,9991,0,1,133.1,Basic,Basic,Clerical/service,Clerical/service,138.7,0,0,0,1,0,0,31,0,10.8,1.4,1.74,'Not on time'
1,15,1,9556,1,1,114,Higher,Basic,High-skilled,Clerical/service,114,0,0,0,1,0,0,20,1,8.9,1.4,3.51,'Not on time'
1,1,1,171,1,1,159,Higher,Higher,High-skilled,High-skilled,162.5,1,0,0,1,1,0,19,0,16.2,0.3,-0.92,'Not on time'
1,1,1,9500,1,1,140,Basic,Basic,'Manual skilled','Manual skilled',129.9,0,0,0,1,0,0,19,0,16.2,0.3,-0.92,'Not on time'
1,42,1,9003,1,39,140,Basic,Secondary,Clerical/service,Clerical/service,140,0,0,0,1,0,0,22,0,15.5,2.8,-4.06,'Not on time'
1,1,2,9254,1,1,130,Secondary,Basic,Clerical/service,Low-skilled,122.7,1,0,0,1,0,0,18,0,7.6,2.6,0.32,'Not on time'
1,1,1,171,1,1,140,Basic,Basic,'Manual skilled',Low-skilled,126.8,1,0,0,0,0,1,18,0,12.7,3.7,-1.7,'Not on time'
1,39,1,9500,1,1,130,Basic,Basic,Clerical/service,'Manual skilled',120,1,0,0,1,0,1,25,0,9.4,-0.8,-3.12,'Not on time'
1,17,2,9556,1,1,120,Basic,Basic,Clerical/service,Clerical/service,111.3,1,0,0,1,0,0,32,0,16.2,0.3,-0.92,'Not on time'
4,39,2,9556,1,1,133.1,Basic,Basic,'Manual skilled','Manual skilled',101.5,1,0,0,1,0,0,24,0,10.8,1.4,1.74,'Not on time'
1,1,3,9085,1,1,134,Basic,Basic,Low-skilled,Clerical/service,129.1,0,0,0,1,0,0,19,0,7.6,2.6,0.32,'Not on time'
1,7,1,9070,1,3,133.1,Higher,Higher,High-skilled,High-skilled,120,1,0,0,1,0,0,32,0,7.6,2.6,0.32,'Not on time'
4,39,1,9085,1,1,140,Basic,Basic,Low-skilled,Low-skilled,154.6,0,0,0,0,0,1,44,0,8.9,1.4,3.51,'Not on time'
1,1,5,9130,1,1,160,Higher,Secondary,High-skilled,Low-skilled,150.2,1,0,0,1,0,0,19,0,12.7,3.7,-1.7,'Not on time'
1,1,1,9773,1,1,116,Basic,Basic,Other/unknown,Clerical/service,114.3,1,0,0,1,0,0,20,0,7.6,2.6,0.32,'Not on time'
1,17,1,9853,1,1,127,Basic,Basic,Clerical/service,'Manual skilled',121.8,1,0,1,1,0,0,18,0,10.8,1.4,1.74,'Not on time'
1,43,1,9991,0,39,160,Basic,Basic,Low-skilled,Low-skilled,160,0,0,0,1,0,0,24,0,9.4,-0.8,-3.12,'Not on time'
1,17,1,171,1,1,125,Secondary,Secondary,'Manual skilled',High-skilled,143.9,1,0,0,1,0,0,20,0,15.5,2.8,-4.06,'Not on time'
1,17,3,9773,1,1,135,Secondary,Basic,Clerical/service,'Manual skilled',135,0,0,0,1,0,0,18,0,12.4,0.5,1.79,'Not on time'
1,39,1,9991,0,1,140,Basic,Basic,Low-skilled,Clerical/service,130,0,0,1,1,0,0,25,0,12.7,3.7,-1.7,'Not on time'
1,1,1,9085,1,1,123,Basic,Basic,Clerical/service,Other/unknown,127.2,0,0,1,0,1,0,20,0,7.6,2.6,0.32,'Not on time'
1,18,4,9853,1,1,118,Basic,Basic,Low-skilled,'Manual skilled',111.4,1,0,1,0,0,0,20,0,11.1,0.6,2.02,'Not on time'
1,18,2,9853,1,1,120,Basic,Basic,Low-skilled,Clerical/service,113.7,1,0,1,0,0,0,19,0,12.4,0.5,1.79,'Not on time'
1,39,1,9003,1,1,123,Basic,Basic,Low-skilled,Low-skilled,110,0,0,1,0,0,0,48,0,11.1,0.6,2.02,'Not on time'
1,17,2,9070,1,1,142,Higher,Secondary,High-skilled,Clerical/service,141,1,0,0,1,1,0,18,0,10.8,1.4,1.74,'Not on time'
5,39,1,9147,1,1,133.1,Secondary,Basic,Clerical/service,'Manual skilled',114,0,0,0,0,1,0,29,0,8.9,1.4,3.51,'Not on time'
1,18,2,9147,1,1,140,Basic,Basic,Clerical/service,Low-skilled,124.3,1,0,0,1,1,0,20,0,10.8,1.4,1.74,'Not on time'
1,1,6,9254,1,1,119,Basic,Basic,Low-skilled,Low-skilled,118.7,1,0,0,1,1,0,20,0,10.8,1.4,1.74,'Not on time'
1,17,6,9147,1,1,130,Basic,Basic,Low-skilled,Low-skilled,110.4,1,0,0,1,1,0,25,0,7.6,2.6,0.32,'Not on time'
1,39,1,171,1,1,116,Unknown,Unknown,Other/unknown,Other/unknown,127,1,0,0,1,1,0,38,0,7.6,2.6,0.32,'Not on time'
1,1,1,9254,1,1,125,Secondary,Higher,Clerical/service,High-skilled,121.9,1,0,0,1,1,0,18,0,10.8,1.4,1.74,'Not on time'
1,39,1,8014,0,39,110,Basic,Basic,Low-skilled,'Manual skilled',127.5,0,0,1,0,0,0,26,0,16.2,0.3,-0.92,'Not on time'
1,1,2,9238,1,1,147,Basic,Basic,Low-skilled,'Manual skilled',135.8,1,0,0,1,0,1,19,0,13.9,-0.3,0.79,'Not on time'
1,17,2,9500,1,1,140,Secondary,Secondary,Clerical/service,Other/unknown,128.5,1,0,0,1,0,0,18,0,12.4,0.5,1.79,'Not on time'
4,39,1,9991,0,1,150,Basic,Basic,Low-skilled,Low-skilled,146.2,0,0,0,1,0,0,30,0,12.4,0.5,1.79,'Not on time'
1,17,1,9238,1,1,132,Basic,Basic,Low-skilled,Low-skilled,123.6,1,0,0,1,0,0,18,0,7.6,2.6,0.32,'Not on time'
1,43,1,9991,0,1,161,Basic,Basic,Low-skilled,Low-skilled,100,1,0,0,1,0,0,27,0,7.6,2.6,0.32,'Not on time'
2,1,1,9238,1,1,145,Basic,Unknown,Low-skilled,'Manual skilled',139.4,0,0,0,0,0,0,27,0,9.4,-0.8,-3.12,'Not on time'
2,7,1,9500,1,3,130,Basic,Basic,Low-skilled,Clerical/service,130,0,0,0,1,0,0,32,0,15.5,2.8,-4.06,'Not on time'
1,7,1,9085,1,3,150,Basic,Basic,Other/unknown,Other/unknown,140,0,0,0,1,1,0,24,0,7.6,2.6,0.32,'Not on time'
1,44,1,9130,1,39,150,Basic,Basic,Low-skilled,High-skilled,150,1,0,0,1,1,0,21,0,13.9,-0.3,0.79,'Not on time'
1,1,1,9500,1,1,154,Basic,Basic,Low-skilled,Low-skilled,149.5,1,0,0,1,0,1,30,0,13.9,-0.3,0.79,'Not on time'
1,1,1,9070,1,1,130,Basic,Secondary,Low-skilled,'Manual skilled',120.2,1,0,0,1,1,0,22,0,12.7,3.7,-1.7,Graduate
1,1,2,9500,1,1,132,Basic,Basic,Low-skilled,'Manual skilled',128,1,0,0,1,1,1,19,0,10.8,1.4,1.74,Graduate
1,1,1,9070,1,1,117,Secondary,Secondary,High-skilled,Low-skilled,118.4,0,0,0,1,1,0,19,0,16.2,0.3,-0.92,Graduate
1,1,5,9254,1,1,126,Basic,Basic,Clerical/service,'Manual skilled',116.6,1,0,0,1,0,0,19,0,13.9,-0.3,0.79,Graduate
1,1,1,9500,1,1,133,Secondary,Basic,Low-skilled,'Manual skilled',121.5,1,0,0,1,0,1,20,0,11.1,0.6,2.02,Graduate
1,17,2,9500,1,1,134,Basic,Basic,Clerical/service,'Manual skilled',133.5,1,0,0,1,0,0,19,0,13.9,-0.3,0.79,Graduate
1,1,1,9130,1,1,141,Secondary,Secondary,Clerical/service,Other/unknown,138.9,1,0,0,1,1,0,18,0,10.8,1.4,1.74,Graduate
1,1,1,9500,1,1,130,Basic,Basic,Clerical/service,Other/unknown,116.8,0,0,0,1,0,0,20,0,12.7,3.7,-1.7,Graduate
2,39,1,8014,0,19,133.1,Basic,Basic,Low-skilled,'Manual skilled',107,0,0,0,1,1,0,41,0,12.7,3.7,-1.7,Graduate
1,43,1,9500,1,1,128,Secondary,Basic,Low-skilled,'Manual skilled',100,1,0,0,1,0,0,20,0,13.9,-0.3,0.79,Graduate
1,1,1,9085,1,1,151,Higher,Higher,High-skilled,Other/unknown,161.9,0,0,0,1,0,0,18,0,7.6,2.6,0.32,Graduate
1,1,1,9070,1,1,115,Basic,Secondary,High-skilled,'Manual skilled',123.4,0,0,0,1,0,0,23,0,13.9,-0.3,0.79,Graduate
1,1,1,9070,1,1,126,Secondary,Basic,Clerical/service,Other/unknown,120.1,0,1,0,1,0,1,20,0,11.1,0.6,2.02,Graduate
1,1,1,9853,1,1,153,Secondary,Basic,Low-skilled,Clerical/service,139.7,1,0,0,1,0,1,19,0,11.1,0.6,2.02,Graduate
1,17,1,9670,1,1,126,Secondary,Basic,Low-skilled,Clerical/service,122.2,0,0,0,1,0,1,19,0,8.9,1.4,3.51,Graduate
1,43,1,9130,1,1,140,Secondary,Higher,Low-skilled,High-skilled,140,1,0,0,1,0,1,20,0,13.9,-0.3,0.79,Graduate
1,1,4,9670,1,1,125,Secondary,Basic,Clerical/service,'Manual skilled',114.9,1,0,0,1,0,1,19,0,11.1,0.6,2.02,Graduate
1,17,1,9500,1,1,128,Basic,Basic,'Manual skilled','Manual skilled',131.5,0,0,0,1,0,0,18,0,9.4,-0.8,-3.12,Graduate
1,17,3,9119,1,1,130,Secondary,Basic,High-skilled,High-skilled,129.3,0,0,0,1,1,1,18,0,8.9,1.4,3.51,Graduate
1,1,1,9238,1,1,133.1,Secondary,Secondary,High-skilled,Clerical/service,112,0,0,0,1,1,0,19,0,12.4,0.5,1.79,Graduate
1,17,1,9254,1,1,148,Secondary,Secondary,Clerical/service,'Manual skilled',145.2,0,0,0,1,1,0,20,0,16.2,0.3,-0.92,Graduate
1,18,1,9238,1,1,122,Secondary,Higher,Low-skilled,High-skilled,112.6,1,0,0,1,1,0,21,0,12.7,3.7,-1.7,Graduate
1,1,1,9500,1,1,126,Basic,Basic,High-skilled,'Manual skilled',123.9,0,0,0,1,0,0,19,0,11.1,0.6,2.02,Graduate
1,1,1,9670,1,1,137,Basic,Basic,Low-skilled,Low-skilled,122.3,0,0,0,1,1,1,18,0,12.4,0.5,1.79,Graduate
1,1,1,9500,1,1,130,Secondary,Basic,Clerical/service,Clerical/service,129.1,1,0,0,1,0,0,18,0,15.5,2.8,-4.06,Graduate
1,17,1,9500,1,1,130,Higher,Higher,High-skilled,High-skilled,131.1,0,0,0,1,1,0,19,0,12.4,0.5,1.79,Graduate
4,39,1,9254,1,1,120,Basic,Basic,Low-skilled,Low-skilled,131,1,0,0,1,1,0,44,0,12.4,0.5,1.79,Graduate
1,1,2,9670,1,1,144,Basic,Basic,Low-skilled,Low-skilled,126.9,0,0,0,1,0,1,21,0,9.4,-0.8,-3.12,Graduate
1,1,1,9238,1,1,125,Basic,Basic,Low-skilled,Low-skilled,125,1,0,1,0,0,1,19,0,10.8,1.4,1.74,Graduate
1,42,1,9500,1,1,120,Secondary,Higher,Low-skilled,High-skilled,130,1,0,0,1,0,0,22,0,12.7,3.7,-1.7,Graduate
1,51,1,9500,1,1,127,Basic,Secondary,Clerical/service,Low-skilled,150,0,0,0,1,0,1,19,0,11.1,0.6,2.02,Graduate
1,17,4,9500,1,1,141,Basic,Basic,High-skilled,High-skilled,126.3,1,0,0,1,0,0,18,0,10.8,1.4,1.74,Graduate
1,1,1,9130,1,1,133,Higher,Basic,Low-skilled,'Manual skilled',125.7,1,0,0,1,1,1,18,0,12.4,0.5,1.79,Graduate
1,1,1,9238,1,1,135,Secondary,Secondary,Low-skilled,Low-skilled,133.3,0,0,0,1,0,1,20,0,11.1,0.6,2.02,Graduate
1,51,1,9991,0,1,141,Basic,Basic,Clerical/service,'Manual skilled',100,0,0,0,1,0,0,21,0,8.9,1.4,3.51,Graduate
1,17,3,9147,1,1,135,Basic,Basic,'Manual skilled',Clerical/service,121,1,0,0,1,1,1,18,0,13.9,-0.3,0.79,Graduate
1,17,1,9500,1,1,131,Secondary,Secondary,Clerical/service,Clerical/service,126.3,0,0,0,1,1,0,19,0,16.2,0.3,-0.92,Graduate
1,16,4,9254,1,1,126,Basic,Basic,Low-skilled,'Manual skilled',118.7,1,0,0,1,0,1,21,0,8.9,1.4,3.51,Graduate
1,39,1,9991,0,19,133.1,Basic,Basic,Low-skilled,Low-skilled,117.2,0,0,0,1,0,0,41,0,7.6,2.6,0.32,Graduate
1,43,2,9147,1,1,130,Unknown,Basic,Low-skilled,Low-skilled,118.5,1,0,0,1,1,0,23,0,7.6,2.6,0.32,Graduate
1,1,2,9670,1,1,135,Secondary,Higher,Clerical/service,High-skilled,133.3,0,0,0,1,0,0,19,0,9.4,-0.8,-3.12,Graduate
1,1,1,9147,1,1,117,Basic,Basic,Clerical/service,'Manual skilled',118.1,0,0,0,1,1,0,19,0,12.4,0.5,1.79,Graduate
1,18,1,9670,1,1,140,Secondary,Basic,Low-skilled,Low-skilled,130.2,1,0,0,1,1,0,22,0,12.7,3.7,-1.7,Graduate
1,1,2,9070,1,1,152,Higher,Secondary,Low-skilled,High-skilled,168.5,1,0,0,1,1,0,21,1,16.2,0.3,-0.92,Graduate
1,44,1,171,1,39,150,Higher,Higher,High-skilled,High-skilled,150,0,0,0,1,1,0,25,0,15.5,2.8,-4.06,Graduate
1,17,2,9238,1,1,133,Basic,Basic,High-skilled,Low-skilled,119.7,0,1,0,1,0,1,18,0,15.5,2.8,-4.06,Graduate
1,17,1,9254,1,1,128,Basic,Secondary,Clerical/service,'Manual skilled',120.7,1,0,1,1,0,0,18,0,13.9,-0.3,0.79,Graduate
1,1,1,171,1,1,142,Basic,Basic,'Manual skilled','Manual skilled',142,1,0,0,1,0,1,18,0,13.9,-0.3,0.79,Graduate
1,1,1,9147,1,1,133,Basic,Basic,Low-skilled,Low-skilled,129.9,0,0,0,1,1,0,18,0,12.4,0.5,1.79,Graduate
1,7,1,9085,1,40,140,Secondary,Basic,Clerical/service,Clerical/service,140,1,0,0,1,0,0,23,0,12.4,0.5,1.79,Graduate
1,1,3,9773,1,1,158,Secondary,Basic,Clerical/service,'Manual skilled',157,1,0,0,1,0,0,18,0,10.8,1.4,1.74,Graduate
1,1,1,9773,1,1,133.1,Higher,Basic,High-skilled,Clerical/service,127,0,0,0,1,1,0,20,0,15.5,2.8,-4.06,Graduate
1,17,2,9147,1,1,125,Basic,Basic,Low-skilled,'Manual skilled',116.3,1,0,0,1,1,0,19,0,13.9,-0.3,0.79,Graduate
2,39,1,9147,1,1,100,Basic,Basic,Low-skilled,Clerical/service,170,0,0,0,1,1,0,45,0,15.5,2.8,-4.06,Graduate
1,1,2,9254,1,1,137,Secondary,Basic,High-skilled,'Manual skilled',122.3,1,0,0,1,1,1,20,0,8.9,1.4,3.51,Graduate
1,1,1,9773,1,1,142,Secondary,Basic,Low-skilled,Low-skilled,136.1,0,0,1,1,1,1,19,0,16.2,0.3,-0.92,Graduate
1,1,1,9500,1,1,132,Basic,Secondary,Low-skilled,Clerical/service,123.4,0,0,0,1,0,1,18,0,11.1,0.6,2.02,Graduate
1,44,1,9238,1,39,130,Basic,Secondary,Low-skilled,Low-skilled,131.9,0,0,0,1,0,1,21,0,13.9,-0.3,0.79,Graduate
1,43,1,9070,1,1,114,Basic,Basic,Low-skilled,'Manual skilled',135.9,0,0,0,1,1,0,26,0,15.5,2.8,-4.06,Graduate
1,17,1,9238,1,1,153,Basic,Basic,'Manual skilled','Manual skilled',159.7,1,0,0,1,0,1,18,0,12.7,3.7,-1.7,Graduate
1,1,3,9773,1,1,133.1,Basic,Basic,Clerical/service,Clerical/service,131.3,1,0,0,1,0,1,18,0,8.9,1.4,3.51,Graduate
1,1,5,9500,1,1,137,Basic,Basic,Clerical/service,'Manual skilled',126.5,1,0,0,1,0,0,18,0,9.4,-0.8,-3.12,Graduate
1,17,1,9147,1,1,134,Basic,Basic,Clerical/service,'Manual skilled',129.5,0,0,0,1,0,1,18,0,10.8,1.4,1.74,Graduate
1,1,1,9238,1,1,115,Basic,Basic,'Manual skilled','Manual skilled',112.9,1,0,0,1,0,1,19,0,12.4,0.5,1.79,Graduate
1,18,1,9130,1,1,135,Basic,Basic,Low-skilled,Clerical/service,121.7,1,0,0,1,0,1,18,0,10.8,1.4,1.74,Graduate
1,1,6,9500,1,1,141,Secondary,Basic,Clerical/service,High-skilled,126.8,1,0,0,1,0,0,18,0,16.2,0.3,-0.92,Graduate
1,1,1,9147,1,1,135,Basic,Secondary,Low-skilled,Low-skilled,122.1,1,0,0,1,0,0,20,0,16.2,0.3,-0.92,Graduate
1,1,1,171,1,1,161,Basic,Basic,Low-skilled,Low-skilled,144.2,1,0,0,1,1,0,18,0,7.6,2.6,0.32,Graduate
1,53,1,9003,1,42,140,Higher,Basic,Clerical/service,Clerical/service,135.3,0,0,0,1,1,0,21,0,8.9,1.4,3.51,Graduate
1,1,1,9254,1,1,172,Basic,Basic,Clerical/service,Clerical/service,153.8,1,0,0,1,0,1,20,1,10.8,1.4,1.74,Graduate
1,1,2,9773,1,1,148,Basic,Secondary,High-skilled,Low-skilled,140,1,0,0,1,0,1,18,0,16.2,0.3,-0.92,Graduate
1,16,3,9773,1,1,138,Basic,Basic,Clerical/service,Low-skilled,134.2,1,0,0,1,0,1,20,0,11.1,0.6,2.02,Graduate
1,1,1,9238,1,1,148,Basic,Basic,Low-skilled,Low-skilled,143.5,0,0,0,1,0,0,18,0,10.8,1.4,1.74,Graduate
1,1,1,9853,1,1,130,Basic,Secondary,Low-skilled,Clerical/service,133.2,1,0,0,1,0,0,19,0,7.6,2.6,0.32,Graduate
1,17,1,9238,1,1,115,Basic,Basic,Clerical/service,Clerical/service,115,1,0,0,1,0,0,19,0,11.1,0.6,2.02,Graduate
1,1,3,9238,1,1,137,Secondary,Secondary,High-skilled,High-skilled,131.4,1,0,0,1,0,0,20,0,7.6,2.6,0.32,Graduate
1,18,2,9500,1,1,135,Basic,Basic,Low-skilled,Clerical/service,125.3,1,0,0,1,0,1,18,0,12.7,3.7,-1.7,Graduate
1,39,1,9003,1,1,120,Higher,Higher,High-skilled,High-skilled,120,0,0,0,1,1,0,27,0,16.2,0.3,-0.92,Graduate
1,1,2,9147,1,1,120,Basic,Basic,Low-skilled,'Manual skilled',118.6,1,0,0,1,0,0,19,0,16.2,0.3,-0.92,Graduate
1,1,1,9238,1,1,121,Secondary,Secondary,Low-skilled,'Manual skilled',118.9,1,0,0,1,0,1,19,0,12.4,0.5,1.79,Graduate
1,44,1,9238,1,1,140,Secondary,Secondary,Clerical/service,Clerical/service,143.4,0,0,0,1,0,1,21,0,13.9,-0.3,0.79,Graduate
1,1,4,9773,1,1,140,Secondary,Basic,High-skilled,Low-skilled,130.5,1,0,0,1,0,0,20,1,12.7,3.7,-1.7,Graduate
1,1,3,9500,1,1,133.1,Basic,Basic,'Manual skilled',Low-skilled,115.5,1,0,0,1,1,1,20,0,10.8,1.4,1.74,Graduate
1,1,1,9670,1,1,124,Basic,Basic,Clerical/service,'Manual skilled',119.1,0,0,0,1,1,1,20,0,9.4,-0.8,-3.12,Graduate
1,1,2,171,1,1,135,Basic,Basic,Clerical/service,'Manual skilled',149,1,0,0,1,1,0,22,0,11.1,0.6,2.02,Graduate
1,39,1,9003,1,1,150,Basic,Basic,'Manual skilled',Clerical/service,137,0,0,0,1,1,0,35,0,15.5,2.8,-4.06,Graduate
1,17,5,9500,1,1,141,Secondary,Secondary,Clerical/service,Clerical/service,133,1,0,0,1,0,0,18,0,13.9,-0.3,0.79,Graduate
1,17,5,9500,1,1,124,Higher,Basic,High-skilled,High-skilled,119.8,0,0,0,1,1,0,19,0,10.8,1.4,1.74,Graduate
1,17,1,9085,1,1,120,Basic,Basic,Other/unknown,Other/unknown,127,0,0,0,1,0,0,19,0,7.6,2.6,0.32,Graduate
2,39,1,9991,0,1,120,Basic,Higher,Low-skilled,High-skilled,168.2,0,0,0,1,1,0,45,0,12.4,0.5,1.79,Graduate
1,17,3,9147,1,1,147,Basic,Basic,Clerical/service,'Manual skilled',132.3,1,0,0,1,0,1,18,0,12.7,3.7,-1.7,Graduate
1,17,1,9670,1,1,134,Basic,Basic,Clerical/service,Clerical/service,125.3,1,0,0,1,1,1,19,0,10.8,1.4,1.74,Graduate
1,39,1,9991,0,1,150,Basic,Basic,'Manual skilled',Other/unknown,127,0,0,0,1,1,0,34,0,8.9,1.4,3.51,Graduate
1,1,2,9670,1,1,123,Basic,Secondary,Low-skilled,High-skilled,117.8,1,0,0,1,0,0,18,0,10.8,1.4,1.74,Graduate
1,1,2,9773,1,1,146,Higher,Secondary,High-skilled,High-skilled,149.2,1,0,0,1,0,0,18,0,9.4,-0.8,-3.12,Graduate
1,1,2,9773,1,1,140,Secondary,Secondary,Clerical/service,High-skilled,131.6,0,0,0,1,1,1,18,0,16.2,0.3,-0.92,Graduate
1,1,1,9500,1,1,157,Basic,Basic,Low-skilled,Low-skilled,143,0,0,0,1,1,0,18,0,12.7,3.7,-1.7,Graduate
1,1,1,9500,1,1,141,Secondary,Secondary,High-skilled,Other/unknown,142.8,0,0,0,1,0,0,18,0,11.1,0.6,2.02,Graduate
1,1,1,9500,1,1,133,Basic,Basic,Clerical/service,Clerical/service,123.2,0,0,0,1,0,0,18,0,16.2,0.3,-0.92,Graduate
1,7,1,9500,1,40,170,Secondary,Secondary,Low-skilled,Clerical/service,170,0,0,0,1,0,0,24,0,16.2,0.3,-0.92,Graduate
1,1,4,9085,1,1,138,Higher,Secondary,High-skilled,Clerical/service,123.3,1,0,0,1,0,1,19,0,12.4,0.5,1.79,Graduate
1,39,1,9500,1,1,100,Basic,Basic,'Manual skilled','Manual skilled',160,1,0,0,1,0,1,24,0,10.8,1.4,1.74,Graduate
1,1,1,9130,1,1,133,Basic,Basic,Clerical/service,'Manual skilled',120.4,1,0,0,1,0,0,20,0,9.4,-0.8,-3.12,Graduate
1,1,4,9773,1,1,136,Secondary,Secondary,Low-skilled,Other/unknown,121.7,1,0,0,1,0,1,22,0,12.4,0.5,1.79,Graduate
1,1,4,9085,1,1,145,Basic,Secondary,Low-skilled,Low-skilled,145,1,0,0,1,0,1,19,0,10.8,1.4,1.74,Graduate
1,17,1,9147,1,1,122,Secondary,Basic,Clerical/service,'Manual skilled',117.8,1,0,0,1,0,0,20,0,13.9,-0.3,0.79,Graduate
1,1,3,9500,1,1,141,Basic,Basic,Low-skilled,Low-skilled,126,1,0,0,1,0,0,18,0,12.7,3.7,-1.7,Graduate
1,1,1,9238,1,1,152,Secondary,Basic,Clerical/service,Clerical/service,144.7,0,0,0,1,0,0,20,0,16.2,0.3,-0.92,Graduate
1,1,1,9070,1,1,116,Secondary,Secondary,High-skilled,High-skilled,110.8,1,0,0,1,0,0,20,0,12.4,0.5,1.79,Graduate
1,1,6,9500,1,1,144,Secondary,Basic,Low-skilled,Low-skilled,127.5,1,0,0,1,0,1,18,0,12.7,3.7,-1.7,Graduate
1,1,1,9500,1,1,138,Basic,Basic,Clerical/service,Low-skilled,141,0,0,0,1,1,0,19,0,7.6,2.6,0.32,Graduate
1,17,1,9500,1,1,143,Basic,Basic,Low-skilled,'Manual skilled',130.6,1,0,0,1,0,0,20,0,16.2,0.3,-0.92,Graduate
1,1,2,9238,1,1,136,Basic,Basic,Clerical/service,'Manual skilled',121.7,1,0,0,1,0,1,21,0,13.9,-0.3,0.79,Graduate
1,1,1,9070,1,1,152,Basic,Basic,Clerical/service,'Manual skilled',136.3,0,0,0,1,0,1,18,0,13.9,-0.3,0.79,Graduate
1,1,1,9773,1,1,133.1,Higher,Basic,Clerical/service,Clerical/service,105,1,0,0,1,0,0,20,0,12.7,3.7,-1.7,Graduate
1,1,1,171,1,1,147,Basic,Basic,'Manual skilled','Manual skilled',134.4,1,0,0,1,1,1,18,0,10.8,1.4,1.74,Graduate
1,17,1,9500,1,1,137,Basic,Basic,'Manual skilled',Clerical/service,131,1,0,0,1,0,1,18,0,9.4,-0.8,-3.12,Graduate
1,1,1,9238,1,1,125,Basic,Basic,Low-skilled,Low-skilled,121.5,1,0,0,1,0,1,19,0,12.4,0.5,1.79,Graduate
1,7,1,9003,1,3,120,Secondary,Basic,Clerical/service,High-skilled,120,1,0,0,1,1,0,27,0,15.5,2.8,-4.06,Graduate
1,1,1,171,1,1,143,Higher,Basic,High-skilled,Other/unknown,129.7,1,0,0,1,0,0,18,0,13.9,-0.3,0.79,Graduate
4,1,1,8014,0,1,133.1,Secondary,Basic,Clerical/service,Other/unknown,143,1,0,0,1,0,1,47,0,16.2,0.3,-0.92,Graduate
1,1,3,9500,1,1,106,Basic,Basic,Low-skilled,'Manual skilled',109.5,1,0,0,1,0,0,19,0,13.9,-0.3,0.79,Graduate
1,1,2,9254,1,1,127,Higher,Basic,High-skilled,Other/unknown,130.9,1,0,0,1,0,0,18,0,9.4,-0.8,-3.12,Graduate
1,39,1,9085,1,1,133.1,Basic,Basic,'Manual skilled','Manual skilled',130,1,0,0,1,0,0,24,0,13.9,-0.3,0.79,Graduate
1,1,2,9085,1,1,148,Basic,Basic,Clerical/service,Low-skilled,134.7,1,0,0,1,0,0,18,0,8.9,1.4,3.51,Graduate
2,51,1,9991,0,1,127,Basic,Basic,'Manual skilled',Clerical/service,100.1,0,0,0,1,0,0,31,0,8.9,1.4,3.51,Graduate
1,44,1,9085,1,39,140,Higher,Higher,Clerical/service,High-skilled,140,1,0,0,1,0,0,19,0,13.9,-0.3,0.79,Graduate
1,39,1,9556,1,1,120,Basic,Basic,Low-skilled,Low-skilled,120,0,0,1,1,0,1,24,0,12.7,3.7,-1.7,Graduate
1,17,5,9238,1,1,122,Basic,Basic,'Manual skilled',Clerical/service,112.9,1,0,0,1,0,1,19,0,16.2,0.3,-0.92,Graduate
1,15,1,9147,1,1,150,Basic,Secondary,Low-skilled,High-skilled,150,0,0,0,1,1,0,19,0,12.4,0.5,1.79,Graduate
2,39,1,9991,0,19,133.1,Basic,Basic,Low-skilled,Low-skilled,150.3,0,0,0,1,0,0,47,0,7.6,2.6,0.32,Graduate
1,18,3,9500,1,1,131,Basic,Secondary,Clerical/service,'Manual skilled',127.5,1,0,0,1,0,0,18,0,13.9,-0.3,0.79,Graduate
1,1,1,8014,0,1,128,Basic,Basic,Other/unknown,Other/unknown,122.1,0,0,0,1,0,0,21,0,7.6,2.6,0.32,Graduate
1,7,1,9003,1,3,120,Basic,Basic,'Manual skilled','Manual skilled',120,0,0,0,1,0,0,54,0,15.5,2.8,-4.06,Graduate
1,17,4,9670,1,1,126,Basic,Basic,Low-skilled,'Manual skilled',119.4,1,0,0,1,0,1,18,0,8.9,1.4,3.51,Graduate
1,17,4,9853,1,1,122,Basic,Basic,Low-skilled,Low-skilled,118.9,1,0,0,1,0,0,20,0,7.6,2.6,0.32,Graduate
1,17,2,171,1,1,131,Higher,Secondary,High-skilled,High-skilled,148.9,1,0,0,1,0,0,20,0,9.4,-0.8,-3.12,Graduate
1,18,2,8014,0,1,117,Higher,Secondary,High-skilled,Clerical/service,111.8,1,0,0,1,0,1,19,0,10.8,1.4,1.74,Graduate
1,39,1,9500,1,1,140,Higher,Higher,High-skilled,High-skilled,140,1,0,0,1,0,0,24,0,9.4,-0.8,-3.12,Graduate
1,17,4,9085,1,1,123,Basic,Basic,Clerical/service,Other/unknown,124.4,1,0,0,1,0,0,19,0,15.5,2.8,-4.06,Graduate
2,39,1,9991,0,3,140,Basic,Basic,Low-skilled,'Manual skilled',152.4,0,0,0,1,0,0,26,0,10.8,1.4,1.74,Graduate
2,39,1,9500,1,1,133.1,Basic,Basic,'Manual skilled','Manual skilled',120,0,0,0,1,0,1,32,0,12.7,3.7,-1.7,Graduate
1,1,1,9085,1,1,138,Basic,Basic,Low-skilled,'Manual skilled',126.8,1,0,0,1,1,0,18,0,10.8,1.4,1.74,Graduate
1,17,1,9238,1,1,151,Basic,Secondary,Clerical/service,Other/unknown,144.4,1,0,0,1,0,0,18,0,16.2,0.3,-0.92,Graduate
1,1,1,9773,1,1,125,Basic,Basic,High-skilled,Clerical/service,115.9,0,0,0,1,0,0,19,0,10.8,1.4,1.74,Graduate
1,1,4,9500,1,1,118,Higher,Higher,High-skilled,High-skilled,110.7,1,0,0,1,0,0,18,0,12.4,0.5,1.79,Graduate
1,17,2,9070,1,1,130,Basic,Basic,Low-skilled,Low-skilled,123.7,1,0,0,1,0,0,18,0,7.6,2.6,0.32,Graduate
4,39,1,9238,1,1,120,Basic,Basic,Low-skilled,Low-skilled,125.5,1,0,0,1,0,1,39,0,12.7,3.7,-1.7,Graduate
5,39,1,9254,1,1,133.1,Higher,Higher,High-skilled,High-skilled,103,0,0,0,1,0,0,62,0,10.8,1.4,1.74,Graduate
1,17,2,9773,1,1,126,Basic,Basic,Low-skilled,'Manual skilled',118.7,1,0,0,1,0,1,18,0,12.4,0.5,1.79,Graduate
1,39,1,9670,1,1,130,Basic,Higher,Clerical/service,High-skilled,159,0,0,0,1,0,1,51,0,12.4,0.5,1.79,Graduate
1,17,3,9500,1,1,143,Higher,Higher,Low-skilled,'Manual skilled',129,1,0,0,1,1,0,19,0,13.9,-0.3,0.79,Graduate
1,1,1,9238,1,1,125,Secondary,Secondary,High-skilled,High-skilled,125.7,1,0,0,1,0,0,18,0,12.4,0.5,1.79,Graduate
1,42,4,9500,1,6,133,Secondary,Basic,High-skilled,Low-skilled,127.8,1,0,0,1,0,1,18,0,7.6,2.6,0.32,Graduate
1,51,1,9238,1,39,140,Basic,Basic,Clerical/service,'Manual skilled',129.1,1,0,0,1,0,1,20,0,12.4,0.5,1.79,Graduate
1,17,1,9773,1,1,136,Secondary,Basic,Low-skilled,'Manual skilled',131.5,1,0,0,1,0,0,18,0,13.9,-0.3,0.79,Graduate
1,1,3,9254,1,1,123,Secondary,Secondary,Clerical/service,High-skilled,123.4,1,0,0,1,1,0,18,0,11.1,0.6,2.02,Graduate
1,17,1,9147,1,1,135,Basic,Basic,Low-skilled,Low-skilled,128,1,0,1,1,0,1,18,0,11.1,0.6,2.02,Graduate
1,1,4,9500,1,1,125,Secondary,Secondary,High-skilled,'Manual skilled',115.2,1,0,0,1,0,0,20,0,12.4,0.5,1.79,Graduate
1,1,2,9070,1,1,121,Basic,Basic,High-skilled,High-skilled,116.1,1,0,0,1,0,0,22,0,12.7,3.7,-1.7,Graduate
1,17,6,9238,1,1,138,Higher,Higher,High-skilled,High-skilled,123,1,0,0,1,0,0,19,0,15.5,2.8,-4.06,Graduate
1,1,1,171,1,1,169,Basic,Basic,Low-skilled,'Manual skilled',176,1,0,0,1,0,1,18,0,12.4,0.5,1.79,Graduate
1,17,6,9147,1,1,145,Basic,Basic,Low-skilled,Low-skilled,132,1,0,0,1,0,0,19,0,7.6,2.6,0.32,Graduate
1,1,1,9085,1,1,139,Higher,Higher,High-skilled,High-skilled,130.6,0,0,0,1,0,0,18,0,9.4,-0.8,-3.12,Graduate
1,1,2,9670,1,1,140,Higher,Secondary,High-skilled,'Manual skilled',137.6,1,0,0,1,1,1,21,0,8.9,1.4,3.51,Graduate
1,5,5,9254,1,1,122,Secondary,Basic,Low-skilled,'Manual skilled',119.6,1,0,0,1,0,1,19,0,12.4,0.5,1.79,Graduate
1,1,2,9085,1,1,127,Basic,Basic,Clerical/service,'Manual skilled',123.9,1,0,0,1,0,0,18,0,10.8,1.4,1.74,Graduate
1,17,1,9238,1,1,127,Basic,Basic,Low-skilled,'Manual skilled',122.8,0,0,0,1,0,1,19,0,16.2,0.3,-0.92,Graduate
1,1,3,9500,1,1,140,Basic,Basic,Low-skilled,Low-skilled,125.5,1,0,0,1,0,1,19,0,10.8,1.4,1.74,Graduate
1,17,2,9238,1,1,132,Basic,Secondary,'Manual skilled','Manual skilled',133.1,1,0,0,1,0,1,19,0,9.4,-0.8,-3.12,Graduate
1,17,2,9670,1,1,110,Secondary,Secondary,Clerical/service,Other/unknown,115.3,1,0,0,1,1,0,19,0,15.5,2.8,-4.06,Graduate
2,39,1,9991,0,1,120,Basic,Basic,Clerical/service,High-skilled,156,1,0,0,1,1,0,33,0,10.8,1.4,1.74,Graduate
1,43,1,9238,1,1,130,Basic,Basic,Low-skilled,'Manual skilled',133.2,0,0,0,1,0,0,20,0,7.6,2.6,0.32,Graduate
1,1,1,9070,1,1,124,Basic,Basic,Low-skilled,High-skilled,116.3,1,0,0,1,0,0,20,0,16.2,0.3,-0.92,Graduate
1,17,3,9500,1,1,133,Basic,Basic,Low-skilled,'Manual skilled',128.8,1,0,0,1,1,0,18,0,13.9,-0.3,0.79,Graduate
1,17,4,9670,1,1,120,Secondary,Basic,Clerical/service,Clerical/service,117.2,1,0,0,1,0,0,18,0,11.1,0.6,2.02,Graduate
1,18,1,8014,0,1,138,Basic,Secondary,Low-skilled,Clerical/service,134.5,1,0,0,1,0,0,19,0,12.4,0.5,1.79,Graduate
1,17,4,9238,1,1,129,Basic,Basic,Clerical/service,'Manual skilled',123.1,1,0,0,1,0,0,19,0,11.1,0.6,2.02,Graduate
1,1,1,9147,1,1,177,Secondary,Basic,High-skilled,Low-skilled,162.3,0,0,0,1,0,1,18,0,15.5,2.8,-4.06,Graduate
1,1,1,9773,1,1,128,Secondary,Basic,Low-skilled,'Manual skilled',118.2,0,0,0,1,0,0,19,0,12.7,3.7,-1.7,Graduate
2,1,1,8014,0,1,165,Basic,Basic,Other/unknown,Other/unknown,162.9,1,0,0,1,1,0,45,0,7.6,2.6,0.32,Graduate
1,17,3,9500,1,1,137,Basic,Basic,'Manual skilled','Manual skilled',126.7,1,0,0,1,0,1,19,0,16.2,0.3,-0.92,Graduate
1,1,1,9773,1,1,121,Secondary,Basic,Clerical/service,Low-skilled,114.4,0,0,0,1,0,1,18,0,11.1,0.6,2.02,Graduate
1,15,1,9254,1,1,140,Basic,Secondary,Low-skilled,'Manual skilled',140,1,0,0,0,0,0,21,1,13.9,-0.3,0.79,Graduate
1,17,2,9147,1,1,142,Basic,Basic,Clerical/service,'Manual skilled',127.3,0,0,0,1,0,1,18,0,11.1,0.6,2.02,Graduate
1,1,1,9238,1,1,165,Basic,Basic,Low-skilled,'Manual skilled',152.4,1,0,0,1,0,1,18,0,16.2,0.3,-0.92,Graduate
4,39,1,9670,1,1,100,Basic,Basic,Clerical/service,Other/unknown,120,0,0,1,1,0,1,39,0,9.4,-0.8,-3.12,Graduate
1,1,1,9147,1,1,153,Secondary,Basic,Clerical/service,High-skilled,146.7,0,0,0,1,0,0,18,0,11.1,0.6,2.02,Graduate
1,1,1,9500,1,1,152,Higher,Basic,High-skilled,Clerical/service,137.8,0,0,0,1,0,0,19,0,11.1,0.6,2.02,Graduate
1,1,1,9085,1,1,129,Basic,Basic,Low-skilled,Low-skilled,117.5,1,0,0,1,0,0,19,0,12.7,3.7,-1.7,Graduate
1,1,3,9500,1,1,134,Secondary,Basic,'Manual skilled','Manual skilled',120.5,1,0,0,1,1,1,18,0,15.5,2.8,-4.06,Graduate
1,17,1,9070,1,1,139,Secondary,Basic,Clerical/service,Low-skilled,131.3,1,0,0,1,0,0,19,0,7.6,2.6,0.32,Graduate
1,1,1,9500,1,1,143,Higher,Higher,High-skilled,High-skilled,129,0,0,0,1,1,0,18,0,10.8,1.4,1.74,Graduate
1,1,1,9085,1,1,111,Secondary,Basic,Clerical/service,Low-skilled,107.5,0,0,0,1,1,1,19,0,11.1,0.6,2.02,Graduate
1,1,2,9500,1,1,97,Secondary,Basic,High-skilled,'Manual skilled',98.1,1,0,0,1,0,0,21,0,11.1,0.6,2.02,Graduate
1,43,4,9147,1,1,124,Basic,Basic,Low-skilled,Low-skilled,117.4,0,0,0,1,0,0,19,0,7.6,2.6,0.32,Graduate
1,1,1,9500,1,1,148,Secondary,Secondary,Low-skilled,Low-skilled,127,1,0,0,1,1,0,20,0,10.8,1.4,1.74,Graduate
1,1,2,9147,1,1,108,Secondary,Basic,Clerical/service,Clerical/service,105.9,1,0,0,1,1,0,21,0,11.1,0.6,2.02,Graduate
1,18,2,9070,1,1,122,Basic,Basic,Clerical/service,Clerical/service,119.9,0,0,0,1,1,0,18,0,9.4,-0.8,-3.12,Graduate
1,1,4,9070,1,1,170,Higher,Higher,High-skilled,High-skilled,165.8,1,0,0,1,1,0,18,0,9.4,-0.8,-3.12,Graduate
1,1,4,171,1,1,131,Basic,Basic,Clerical/service,Clerical/service,119.8,1,1,0,1,0,0,22,0,16.2,0.3,-0.92,Graduate
1,44,1,9003,1,39,140,Higher,Secondary,Clerical/service,'Manual skilled',140,0,0,0,1,1,0,21,0,13.9,-0.3,0.79,Graduate
1,1,6,9500,1,1,118,Basic,Basic,Clerical/service,Clerical/service,114.2,1,0,0,1,0,0,20,0,11.1,0.6,2.02,Graduate
1,1,2,9500,1,1,130,Secondary,Secondary,Clerical/service,High-skilled,125.1,1,0,0,1,0,0,18,0,15.5,2.8,-4.06,Graduate
1,1,1,9238,1,1,137,Higher,Secondary,Clerical/service,Low-skilled,128.6,0,0,0,1,0,1,18,0,12.4,0.5,1.79,Graduate
1,17,2,9670,1,1,110,Higher,Higher,Clerical/service,Other/unknown,115.6,1,0,0,1,1,0,21,0,11.1,0.6,2.02,Graduate
1,1,3,9070,1,1,161,Basic,Basic,Clerical/service,Clerical/service,154.4,1,0,0,1,0,0,18,0,16.2,0.3,-0.92,Graduate
1,15,1,9085,1,1,133.1,Higher,Higher,Clerical/service,High-skilled,101.3,0,0,0,1,0,0,18,1,11.1,0.6,2.02,Graduate
1,17,2,9500,1,1,140,Basic,Basic,Low-skilled,Low-skilled,132.5,1,0,0,1,0,0,18,0,7.6,2.6,0.32,Graduate
1,1,4,9500,1,1,141,Basic,Basic,'Manual skilled','Manual skilled',132.5,1,0,0,1,0,1,18,0,9.4,-0.8,-3.12,Graduate
1,17,1,9130,1,1,156,Higher,Secondary,High-skilled,Clerical/service,166.9,0,0,0,1,0,0,18,0,7.6,2.6,0.32,Graduate
1,1,1,9085,1,1,149,Basic,Basic,Clerical/service,Clerical/service,137.1,1,0,0,1,0,1,18,0,10.8,1.4,1.74,Graduate
4,39,1,8014,0,1,133.1,Basic,Basic,Low-skilled,'Manual skilled',113,0,0,0,1,0,1,32,0,16.2,0.3,-0.92,Graduate
1,44,1,9003,1,39,120,Basic,Basic,'Manual skilled','Manual skilled',120,1,0,0,1,1,0,19,0,12.4,0.5,1.79,Graduate
1,39,1,9003,1,19,133.1,Basic,Basic,Low-skilled,'Manual skilled',100,0,0,0,1,1,0,35,0,15.5,2.8,-4.06,Graduate
1,42,1,9500,1,1,123,Basic,Basic,High-skilled,High-skilled,123,1,0,0,1,0,1,21,0,9.4,-0.8,-3.12,Graduate
1,1,3,9070,1,1,122,Basic,Basic,Low-skilled,Low-skilled,125.9,1,0,0,1,1,1,20,0,12.4,0.5,1.79,Graduate
1,44,1,8014,0,39,150,Secondary,Basic,Low-skilled,'Manual skilled',146.7,0,0,0,1,0,1,21,0,12.4,0.5,1.79,Graduate
1,1,1,9147,1,1,134,Higher,Basic,High-skilled,Other/unknown,128.8,0,0,0,1,0,0,18,0,13.9,-0.3,0.79,Graduate
1,42,1,9670,1,1,130,Secondary,Secondary,Low-skilled,Other/unknown,116.3,1,0,0,1,0,1,20,0,12.7,3.7,-1.7,Graduate
1,16,2,9070,1,1,137,Secondary,Secondary,High-skilled,High-skilled,141.2,1,0,1,1,1,0,19,0,9.4,-0.8,-3.12,Graduate
4,39,1,9991,0,1,133.1,Basic,Basic,'Manual skilled','Manual skilled',136.2,0,0,0,1,0,0,39,0,10.8,1.4,1.74,Graduate
2,44,1,8014,0,39,150,Secondary,Secondary,Clerical/service,Clerical/service,154,0,0,0,1,1,0,37,0,12.4,0.5,1.79,Graduate
1,1,6,9773,1,1,136,Basic,Basic,Low-skilled,Low-skilled,132.9,1,0,0,1,1,0,19,0,7.6,2.6,0.32,Graduate
1,1,1,9500,1,1,121,Secondary,Secondary,Clerical/service,Clerical/service,114.9,0,0,0,1,1,1,21,0,12.4,0.5,1.79,Graduate
1,1,2,9070,1,1,164,Basic,Basic,Low-skilled,'Manual skilled',165.8,1,0,0,1,0,0,18,0,9.4,-0.8,-3.12,Graduate
1,17,5,9670,1,1,132,Basic,Basic,Clerical/service,Clerical/service,134.1,1,0,0,1,1,0,21,0,10.8,1.4,1.74,Graduate
1,1,1,9500,1,1,149,Basic,Basic,Low-skilled,Low-skilled,139.5,0,0,0,1,1,1,18,0,9.4,-0.8,-3.12,Graduate
1,1,3,9556,1,1,122,Basic,Basic,High-skilled,Other/unknown,113.3,1,0,0,1,0,1,20,0,12.4,0.5,1.79,Graduate
1,1,1,9147,1,1,131,Higher,Basic,High-skilled,Clerical/service,118.8,0,0,0,1,0,0,19,0,16.2,0.3,-0.92,Graduate
1,53,1,9085,1,42,160,Secondary,Basic,Clerical/service,'Manual skilled',155.7,1,0,0,1,0,0,27,0,8.9,1.4,3.51,Graduate
1,1,1,9238,1,1,108,Basic,Basic,Low-skilled,'Manual skilled',110.5,1,0,0,1,0,1,22,0,12.4,0.5,1.79,Graduate
1,1,4,9500,1,1,148,Basic,Basic,Low-skilled,High-skilled,125,1,0,0,1,0,0,18,0,7.6,2.6,0.32,Graduate
1,17,1,9238,1,1,158,Secondary,Secondary,Clerical/service,'Manual skilled',140.5,0,0,0,1,0,1,20,0,10.8,1.4,1.74,Graduate
1,1,4,9500,1,1,145,Higher,Basic,High-skilled,Clerical/service,130,1,0,0,1,0,0,18,0,9.4,-0.8,-3.12,Graduate
1,17,1,9085,1,1,133,Basic,Secondary,Clerical/service,Clerical/service,127.1,1,0,0,1,0,0,18,0,11.1,0.6,2.02,Graduate
1,17,1,9070,1,1,133.1,Basic,Basic,Clerical/service,Clerical/service,128,0,0,0,1,0,1,21,0,9.4,-0.8,-3.12,Graduate
1,1,1,9085,1,1,148,Basic,Higher,Clerical/service,High-skilled,136.5,0,0,0,1,0,0,19,0,15.5,2.8,-4.06,Graduate
1,1,5,9773,1,1,110,Basic,Basic,High-skilled,Clerical/service,117.4,1,0,0,1,0,0,20,0,11.1,0.6,2.02,Graduate
1,17,3,9500,1,1,138,Secondary,Basic,'Manual skilled','Manual skilled',129.3,1,0,0,1,0,1,18,0,12.4,0.5,1.79,Graduate
1,17,1,9238,1,1,139,Basic,Basic,Clerical/service,Low-skilled,146.7,1,0,0,1,0,1,20,0,15.5,2.8,-4.06,Graduate
1,1,1,9070,1,1,153,Higher,Higher,High-skilled,High-skilled,146.7,1,0,0,1,0,0,18,0,12.7,3.7,-1.7,Graduate
1,1,1,9500,1,1,148,Higher,Secondary,Clerical/service,Clerical/service,132.8,0,0,0,1,0,0,18,0,10.8,1.4,1.74,Graduate
1,17,3,171,1,1,147,Basic,Secondary,Clerical/service,Clerical/service,137.6,1,0,0,1,0,1,20,0,12.7,3.7,-1.7,Graduate
1,17,4,9853,1,1,140,Basic,Basic,Clerical/service,High-skilled,128.5,1,0,0,1,0,0,18,0,10.8,1.4,1.74,Graduate
1,17,3,9238,1,1,118,Higher,Secondary,High-skilled,Clerical/service,110,1,0,0,1,0,0,18,0,8.9,1.4,3.51,Graduate
1,1,2,9500,1,1,138,Higher,Higher,High-skilled,High-skilled,127.5,1,0,0,1,0,1,18,0,16.2,0.3,-0.92,Graduate
1,1,3,9773,1,1,135,Basic,Basic,Clerical/service,'Manual skilled',133.3,1,0,0,1,0,1,18,0,8.9,1.4,3.51,Graduate
1,44,1,9070,1,1,140,Secondary,Secondary,Low-skilled,'Manual skilled',144.3,1,0,0,1,0,0,19,0,12.4,0.5,1.79,Graduate
1,17,3,9070,1,1,120,Higher,Secondary,Clerical/service,Clerical/service,116.9,1,0,0,1,0,0,19,0,8.9,1.4,3.51,Graduate
1,17,2,9238,1,1,133,Secondary,Basic,'Manual skilled',Low-skilled,127.4,1,0,0,1,0,1,18,0,12.7,3.7,-1.7,Graduate
1,1,3,9500,1,1,130,Basic,Basic,Low-skilled,Clerical/service,130.5,1,0,0,1,0,0,19,0,7.6,2.6,0.32,Graduate
1,1,1,9254,1,1,135,Basic,Basic,Low-skilled,'Manual skilled',139.2,0,0,0,1,1,1,19,0,12.4,0.5,1.79,Graduate
1,17,4,9238,1,1,140,Basic,Basic,Low-skilled,Low-skilled,130.2,1,0,0,1,0,1,18,0,12.7,3.7,-1.7,Graduate
1,1,1,9238,1,1,106,Secondary,Secondary,High-skilled,High-skilled,105,0,0,0,1,1,0,20,0,11.1,0.6,2.02,Graduate
1,17,2,9670,1,1,128,Basic,Basic,Clerical/service,'Manual skilled',121.7,0,0,0,1,1,1,20,0,9.4,-0.8,-3.12,Graduate
1,1,1,171,1,1,147,Basic,Basic,High-skilled,Other/unknown,151.9,1,0,0,1,0,0,21,0,11.1,0.6,2.02,Graduate
1,1,1,9670,1,1,141,Secondary,Secondary,Clerical/service,Low-skilled,126.3,0,0,0,1,1,1,18,0,13.9,-0.3,0.79,Graduate
1,44,1,9070,1,39,130,Secondary,Secondary,Low-skilled,Low-skilled,131.8,0,0,0,1,1,1,22,0,12.4,0.5,1.79,Graduate
1,1,1,9853,1,1,143,Basic,Higher,Clerical/service,Clerical/service,147.2,0,0,0,1,0,0,18,0,11.1,0.6,2.02,Graduate
2,43,1,8014,0,1,160,Basic,Secondary,Low-skilled,Clerical/service,140.9,0,0,0,1,0,0,50,0,16.2,0.3,-0.92,Graduate
1,1,1,8014,0,1,123,Unknown,Basic,Low-skilled,Other/unknown,121.3,1,0,0,1,0,0,25,0,7.6,2.6,0.32,Graduate
1,1,2,9238,1,1,133.1,Basic,Basic,Low-skilled,Low-skilled,106,1,0,0,1,0,1,20,0,12.4,0.5,1.79,Graduate
4,39,1,9991,0,1,140,Secondary,Basic,Clerical/service,Low-skilled,129.7,0,0,0,1,0,0,35,0,13.9,-0.3,0.79,Graduate
1,1,1,9070,1,1,139,Secondary,Basic,High-skilled,Low-skilled,134.9,1,0,0,1,1,0,20,0,16.2,0.3,-0.92,Graduate
1,1,4,9670,1,1,125,Higher,Basic,High-skilled,Clerical/service,118,1,0,0,1,0,0,19,0,16.2,0.3,-0.92,Graduate
1,1,1,9500,1,1,127,Higher,Basic,High-skilled,Low-skilled,121.5,0,0,0,1,1,0,23,0,7.6,2.6,0.32,Graduate
1,39,1,9500,1,3,130,Higher,Higher,High-skilled,High-skilled,130,0,0,0,1,0,0,29,0,12.7,3.7,-1.7,Graduate
1,1,1,9670,1,1,141,Higher,Secondary,High-skilled,Clerical/service,140.7,1,0,0,1,1,0,20,0,7.6,2.6,0.32,Graduate
1,1,2,9773,1,1,140,Secondary,Secondary,Low-skilled,Low-skilled,136.9,1,0,0,1,0,1,19,0,16.2,0.3,-0.92,Graduate
1,1,3,9500,1,1,147,Basic,Basic,Low-skilled,Clerical/service,134.8,1,0,0,1,0,0,18,0,7.6,2.6,0.32,Graduate
1,1,1,9254,1,1,132,Secondary,Basic,Low-skilled,Low-skilled,120.1,1,0,0,1,1,1,20,0,8.9,1.4,3.51,Graduate
1,1,1,9670,1,1,150,Higher,Basic,Clerical/service,'Manual skilled',139.5,0,0,0,1,1,1,20,0,12.7,3.7,-1.7,Graduate
1,39,1,8014,0,1,133.1,Higher,Basic,Clerical/service,'Manual skilled',119,0,0,0,1,1,0,39,0,8.9,1.4,3.51,Graduate
1,17,2,9556,1,1,133.1,Basic,Basic,High-skilled,Other/unknown,108,0,0,0,1,0,0,20,0,15.5,2.8,-4.06,Graduate
1,1,1,9238,1,1,164,Basic,Basic,Low-skilled,Low-skilled,149,1,0,0,1,0,1,23,0,10.8,1.4,1.74,Graduate
2,39,1,9500,1,1,133.1,Secondary,Basic,Low-skilled,Low-skilled,120,0,0,0,1,1,1,34,0,12.7,3.7,-1.7,Graduate
1,17,2,9773,1,1,132,Basic,Secondary,Low-skilled,Low-skilled,141.8,1,0,0,1,1,0,20,0,12.7,3.7,-1.7,Graduate
2,39,1,8014,0,1,130,Basic,Basic,Low-skilled,'Manual skilled',110,1,0,0,1,0,0,33,0,9.4,-0.8,-3.12,Graduate
1,43,2,8014,0,3,130,Unknown,Unknown,Other/unknown,Other/unknown,130,0,0,0,1,1,0,31,0,7.6,2.6,0.32,Graduate
1,17,1,9238,1,1,143,Basic,Basic,Low-skilled,Low-skilled,126.2,1,0,0,1,0,1,21,0,12.4,0.5,1.79,Graduate
1,1,2,9147,1,1,118,Higher,Basic,High-skilled,Clerical/service,113.8,1,0,0,1,0,0,21,0,8.9,1.4,3.51,Graduate
1,1,1,9670,1,1,123,Basic,Basic,Low-skilled,'Manual skilled',125.5,0,0,0,0,0,1,19,0,8.9,1.4,3.51,Graduate
1,1,2,9085,1,1,157,Higher,Basic,Clerical/service,'Manual skilled',142.3,0,0,0,1,0,0,18,0,7.6,2.6,0.32,Graduate
1,1,1,9670,1,1,142,Secondary,Basic,Clerical/service,Clerical/service,128,0,0,0,1,0,1,18,0,11.1,0.6,2.02,Graduate
1,1,3,9238,1,1,121,Basic,Basic,'Manual skilled','Manual skilled',115.4,1,0,0,1,0,1,19,0,13.9,-0.3,0.79,Graduate
1,43,1,9070,1,1,130,Basic,Basic,Low-skilled,Low-skilled,129,1,0,0,1,0,0,25,0,9.4,-0.8,-3.12,Graduate
1,1,1,9773,1,1,135,Secondary,Basic,Clerical/service,Other/unknown,129.4,1,0,0,1,0,0,18,0,11.1,0.6,2.02,Graduate
1,42,1,9991,0,1,150,Basic,Basic,Clerical/service,Clerical/service,113.7,0,0,0,1,1,0,30,0,16.2,0.3,-0.92,Graduate
1,1,1,9003,1,1,148,Secondary,Basic,Low-skilled,Low-skilled,143.5,0,0,1,1,1,0,18,0,8.9,1.4,3.51,Graduate
1,42,1,9500,1,1,122,Higher,Higher,High-skilled,High-skilled,122,1,0,0,1,0,0,20,0,12.7,3.7,-1.7,Graduate
1,1,1,9070,1,1,144,Secondary,Secondary,High-skilled,Clerical/service,127.2,1,0,0,1,0,1,20,0,10.8,1.4,1.74,Graduate
1,5,2,9853,1,1,124,Basic,Basic,High-skilled,High-skilled,113.9,1,0,0,1,0,1,19,0,12.7,3.7,-1.7,Graduate
1,39,1,9991,0,40,140,Secondary,Basic,Low-skilled,Low-skilled,139,0,0,0,1,0,0,27,0,8.9,1.4,3.51,Graduate
1,17,1,9500,1,1,137,Basic,Basic,High-skilled,Low-skilled,124.9,0,0,0,1,0,1,19,0,15.5,2.8,-4.06,Graduate
1,17,3,9500,1,1,133,Higher,Basic,High-skilled,Clerical/service,130.8,1,0,0,1,0,0,19,0,9.4,-0.8,-3.12,Graduate
1,1,3,171,1,1,122,Secondary,Secondary,Low-skilled,'Manual skilled',120.3,0,0,0,1,0,1,21,0,11.1,0.6,2.02,Graduate
1,18,2,9670,1,1,121,Basic,Basic,Clerical/service,High-skilled,111.9,1,0,0,1,1,0,19,0,13.9,-0.3,0.79,Graduate
1,1,2,9500,1,1,143,Higher,Higher,High-skilled,High-skilled,137.8,0,0,0,1,1,0,19,0,12.4,0.5,1.79,Graduate
1,1,1,9147,1,1,126,Higher,Basic,High-skilled,High-skilled,115.2,0,0,0,1,1,0,19,0,16.2,0.3,-0.92,Graduate
1,1,1,9070,1,1,136,Higher,Higher,Low-skilled,Low-skilled,136,1,0,1,0,0,1,19,0,10.8,1.4,1.74,Graduate
1,1,3,9500,1,1,128,Secondary,Secondary,Clerical/service,Other/unknown,118.9,1,0,0,1,0,0,20,0,13.9,-0.3,0.79,Graduate
1,1,1,9003,1,1,133.1,Basic,Basic,Clerical/service,'Manual skilled',115,0,0,1,1,1,0,21,0,15.5,2.8,-4.06,Graduate
1,7,1,9991,0,40,140,Basic,Basic,'Manual skilled','Manual skilled',140,0,0,0,1,0,0,26,0,12.4,0.5,1.79,Graduate
1,1,1,9773,1,1,150,Basic,Basic,Other/unknown,Other/unknown,131.1,1,0,0,1,1,0,19,0,7.6,2.6,0.32,Graduate
1,7,1,9500,1,3,130,Basic,Basic,'Manual skilled','Manual skilled',130,1,0,0,1,0,0,27,0,9.4,-0.8,-3.12,Graduate
1,1,4,9070,1,1,139,Higher,Basic,High-skilled,Clerical/service,138.3,1,0,0,1,0,0,19,0,9.4,-0.8,-3.12,Graduate
1,1,1,9500,1,1,125,Basic,Basic,Low-skilled,Low-skilled,118.8,0,0,0,1,1,0,24,0,7.6,2.6,0.32,Graduate
1,1,3,9500,1,1,114,Secondary,Secondary,Clerical/service,Clerical/service,114.5,1,0,0,1,0,1,19,0,12.4,0.5,1.79,Graduate
1,17,1,9238,1,1,125,Basic,Basic,High-skilled,'Manual skilled',114.9,0,0,0,1,0,1,19,0,11.1,0.6,2.02,Graduate
1,1,3,9238,1,1,137,Secondary,Secondary,Low-skilled,Low-skilled,129.3,0,0,0,1,0,1,21,1,16.2,0.3,-0.92,Graduate
1,1,1,9238,1,1,117,Secondary,Basic,Clerical/service,'Manual skilled',113.5,1,0,0,1,0,1,18,0,11.1,0.6,2.02,Graduate
1,1,1,9085,1,1,128,Basic,Secondary,Clerical/service,Clerical/service,135.7,1,0,0,1,0,0,20,0,10.8,1.4,1.74,Graduate
1,1,1,171,1,1,149,Secondary,Secondary,Low-skilled,High-skilled,156,1,0,0,1,0,0,18,0,10.8,1.4,1.74,Graduate
1,18,1,171,1,1,121,Secondary,Secondary,Clerical/service,High-skilled,116.8,1,0,0,1,0,0,23,0,12.4,0.5,1.79,Graduate
1,1,1,171,1,1,143,Secondary,Secondary,Clerical/service,High-skilled,155.3,1,1,0,1,0,0,18,0,11.1,0.6,2.02,Graduate
1,43,1,9773,1,1,126,Secondary,Basic,High-skilled,Other/unknown,110,0,0,1,1,0,0,20,0,12.4,0.5,1.79,Graduate
1,1,1,9130,1,1,127,Secondary,Secondary,Clerical/service,Clerical/service,120.4,1,0,0,1,0,0,18,0,13.9,-0.3,0.79,Graduate
1,44,1,9238,1,39,150,Secondary,Basic,Clerical/service,'Manual skilled',145.6,1,0,0,1,0,1,20,0,13.9,-0.3,0.79,Graduate
1,43,1,9238,1,1,110,Secondary,Secondary,Other/unknown,Other/unknown,112.5,1,0,0,1,0,0,20,0,7.6,2.6,0.32,Graduate
1,1,2,9500,1,1,132,Basic,Basic,Clerical/service,'Manual skilled',127.5,1,0,0,1,0,0,20,0,9.4,-0.8,-3.12,Graduate
1,1,4,9500,1,1,148,Secondary,Basic,Clerical/service,'Manual skilled',132,1,0,0,1,0,0,18,0,7.6,2.6,0.32,Graduate
6,39,1,8014,0,1,133.1,Basic,Secondary,Low-skilled,'Manual skilled',114.8,0,0,0,1,0,1,41,0,13.9,-0.3,0.79,Graduate
1,1,1,9773,1,1,128,Secondary,Basic,Clerical/service,Clerical/service,124.5,0,0,0,1,1,1,19,0,9.4,-0.8,-3.12,Graduate
1,17,2,9773,1,1,142,Basic,Basic,Low-skilled,Low-skilled,139.9,0,0,0,1,0,1,18,0,13.9,-0.3,0.79,Graduate
1,1,1,9130,1,1,133.1,Secondary,Basic,Clerical/service,Clerical/service,138.4,0,0,0,1,1,0,21,0,7.6,2.6,0.32,Graduate
1,1,3,9773,1,1,121,Basic,Basic,Low-skilled,'Manual skilled',113,1,0,0,1,1,0,19,0,11.1,0.6,2.02,Graduate
1,1,2,9254,1,1,136,Secondary,Secondary,Low-skilled,Clerical/service,123.4,1,0,0,1,0,1,18,0,8.9,1.4,3.51,Graduate
2,1,1,9070,1,1,127,Secondary,Basic,Low-skilled,Low-skilled,123.2,0,0,0,1,0,1,20,0,11.1,0.6,2.02,Graduate
1,1,4,9500,1,1,129,Basic,Basic,Low-skilled,Low-skilled,117.1,1,0,0,1,0,0,30,0,12.4,0.5,1.79,Graduate
1,1,1,9773,1,1,139,Basic,Basic,Low-skilled,Low-skilled,145,1,0,0,1,0,1,18,0,9.4,-0.8,-3.12,Graduate
1,1,4,9670,1,1,128,Basic,Basic,High-skilled,'Manual skilled',121,1,0,0,1,0,0,19,0,11.1,0.6,2.02,Graduate
2,39,1,9991,0,1,160,Basic,Basic,Low-skilled,Low-skilled,160,0,0,0,1,0,0,35,0,15.5,2.8,-4.06,Graduate
1,7,1,9500,1,3,140,Secondary,Basic,Low-skilled,Clerical/service,140,0,0,0,1,0,0,30,0,10.8,1.4,1.74,Graduate
1,1,2,9556,1,1,130,Secondary,Basic,High-skilled,'Manual skilled',119.5,1,0,0,1,0,1,21,0,15.5,2.8,-4.06,Graduate
2,7,1,9670,1,3,110,Basic,Basic,'Manual skilled','Manual skilled',110,0,0,0,1,0,0,32,0,13.9,-0.3,0.79,Graduate
1,39,1,8014,0,1,120,Basic,Basic,'Manual skilled','Manual skilled',120,0,0,0,1,0,1,27,0,15.5,2.8,-4.06,Graduate
1,7,1,9003,1,4,120,Higher,Secondary,High-skilled,Clerical/service,120,1,0,0,1,0,0,31,0,15.5,2.8,-4.06,Graduate
1,17,2,9147,1,1,125,Basic,Basic,'Manual skilled','Manual skilled',114.5,1,0,0,1,0,1,19,0,12.4,0.5,1.79,Graduate
1,1,4,9670,1,1,133,Secondary,Higher,Clerical/service,'Manual skilled',121.1,1,0,0,1,0,0,18,0,13.9,-0.3,0.79,Graduate
1,17,1,9500,1,1,121,Secondary,Secondary,Clerical/service,High-skilled,120.5,1,0,0,1,0,0,21,0,10.8,1.4,1.74,Graduate
1,17,1,9085,1,1,128,Higher,Basic,High-skilled,Clerical/service,123.3,1,0,0,1,0,1,20,0,8.9,1.4,3.51,Graduate
1,1,4,9500,1,1,140,Secondary,Secondary,High-skilled,Other/unknown,131.6,1,0,0,1,0,0,18,0,12.4,0.5,1.79,Graduate
1,17,4,9070,1,1,148,Secondary,Higher,Clerical/service,High-skilled,163.4,1,0,0,1,0,0,20,0,16.2,0.3,-0.92,Graduate
1,1,5,9500,1,1,118,Higher,Secondary,Clerical/service,Other/unknown,113.5,1,0,0,1,0,0,20,0,12.4,0.5,1.79,Graduate
1,1,1,9500,1,1,147,Basic,Basic,Clerical/service,'Manual skilled',147.3,0,0,0,1,0,0,18,0,7.6,2.6,0.32,Graduate
1,43,1,9147,1,1,153,Secondary,Basic,Low-skilled,Other/unknown,147.8,0,0,0,1,0,1,18,0,16.2,0.3,-0.92,Graduate
1,1,1,9238,1,1,128,Basic,Basic,Low-skilled,Clerical/service,127.3,1,0,0,1,0,1,19,0,16.2,0.3,-0.92,Graduate
1,1,1,9085,1,1,154,Basic,Basic,Clerical/service,Clerical/service,141.4,0,0,0,1,0,1,19,0,11.1,0.6,2.02,Graduate
1,17,1,8014,0,1,132,Basic,Basic,Clerical/service,Clerical/service,121.2,0,0,0,1,0,0,18,0,10.8,1.4,1.74,Graduate
1,44,1,9991,0,39,160,Basic,Basic,Low-skilled,Low-skilled,160,0,0,0,1,0,0,26,0,12.7,3.7,-1.7,Graduate
1,43,1,9085,1,1,130,Basic,Basic,'Manual skilled','Manual skilled',120.2,1,0,0,1,0,0,20,0,10.8,1.4,1.74,Graduate
1,1,1,9147,1,1,136,Basic,Basic,Low-skilled,'Manual skilled',125.9,0,0,0,1,0,0,21,0,11.1,0.6,2.02,Graduate
1,17,2,9254,1,1,123,Basic,Basic,'Manual skilled','Manual skilled',113.9,1,0,0,1,0,0,18,0,11.1,0.6,2.02,Graduate
1,43,1,9238,1,1,130,Basic,Basic,Low-skilled,Clerical/service,118.4,0,0,1,1,0,0,28,0,16.2,0.3,-0.92,Graduate
1,1,1,171,1,1,133.1,Higher,Secondary,High-skilled,Clerical/service,128.2,1,0,0,1,0,0,20,0,11.1,0.6,2.02,Graduate
1,51,1,9147,1,1,140,Basic,Basic,Low-skilled,'Manual skilled',120.4,0,0,1,0,0,0,32,0,16.2,0.3,-0.92,Graduate
1,1,2,9070,1,1,128,Basic,Basic,Low-skilled,Low-skilled,123.5,1,0,0,1,1,1,21,0,8.9,1.4,3.51,Graduate
1,1,1,9085,1,1,133,Secondary,Basic,Clerical/service,Other/unknown,143.2,0,0,0,1,0,0,19,0,7.6,2.6,0.32,Graduate
1,17,1,9500,1,1,140,Basic,Basic,'Manual skilled','Manual skilled',136.5,1,0,0,1,0,1,18,0,12.4,0.5,1.79,Graduate
1,1,2,9500,1,1,131,Secondary,Secondary,Clerical/service,Low-skilled,129.5,1,0,0,1,0,1,19,0,9.4,-0.8,-3.12,Graduate
1,1,5,9500,1,1,127,Basic,Basic,'Manual skilled','Manual skilled',120.3,1,0,0,1,0,1,18,0,10.8,1.4,1.74,Graduate
1,1,1,9500,1,1,144,Basic,Secondary,Low-skilled,Other/unknown,137.4,0,0,0,1,0,0,19,0,16.2,0.3,-0.92,Graduate
1,17,1,9773,1,1,130,Basic,Basic,Low-skilled,Low-skilled,140.2,0,0,0,1,1,1,19,0,16.2,0.3,-0.92,Graduate
1,1,1,9853,1,1,122,Higher,Basic,High-skilled,High-skilled,112.9,0,0,0,1,0,0,18,0,16.2,0.3,-0.92,Graduate
1,17,1,9238,1,1,133.1,Basic,Basic,Low-skilled,Low-skilled,146,0,0,1,1,0,1,19,0,8.9,1.4,3.51,Graduate
1,53,1,9556,1,42,140,Secondary,Basic,Clerical/service,Clerical/service,140,0,0,0,1,0,1,22,0,8.9,1.4,3.51,Graduate
1,1,2,9773,1,1,135,Basic,Basic,Clerical/service,Clerical/service,126.3,1,1,0,1,0,1,20,0,8.9,1.4,3.51,Graduate
1,17,2,9500,1,1,135,Basic,Basic,Low-skilled,Other/unknown,133.4,1,0,0,1,0,0,19,0,11.1,0.6,2.02,Graduate
1,43,1,9147,1,1,141,Basic,Basic,Low-skilled,Low-skilled,130.2,0,0,0,1,1,0,24,0,9.4,-0.8,-3.12,Graduate
1,17,2,9238,1,1,139,Higher,Higher,High-skilled,High-skilled,132.7,1,0,0,1,0,0,19,0,9.4,-0.8,-3.12,Graduate
1,18,1,9500,1,1,143,Basic,Basic,Clerical/service,Low-skilled,116.5,1,0,0,1,0,1,20,0,15.5,2.8,-4.06,Graduate
1,10,1,9670,1,1,148.9,Basic,Basic,Low-skilled,Low-skilled,148.9,0,0,0,1,0,0,20,1,9.4,-0.8,-3.12,Graduate
1,1,1,9254,1,1,131,Basic,Secondary,Low-skilled,High-skilled,126.1,1,0,0,1,1,0,18,1,7.6,2.6,0.32,Graduate
1,1,4,9500,1,1,142,Basic,Basic,Low-skilled,'Manual skilled',129.8,1,0,0,1,0,0,18,0,12.7,3.7,-1.7,Graduate
2,7,1,9238,1,3,130,Basic,Basic,Clerical/service,Clerical/service,130,0,0,0,1,0,0,38,0,16.2,0.3,-0.92,Graduate
1,1,1,9238,1,1,124,Basic,Basic,Low-skilled,High-skilled,114.2,0,0,0,1,0,0,18,0,15.5,2.8,-4.06,Graduate
1,1,1,9238,1,1,141,Basic,Basic,Low-skilled,Other/unknown,138.9,0,0,0,1,0,0,18,0,13.9,-0.3,0.79,Graduate
1,1,2,9238,1,1,134,Secondary,Basic,Clerical/service,Clerical/service,126,0,0,0,1,0,0,18,0,10.8,1.4,1.74,Graduate
1,17,2,9773,1,1,130,Higher,Secondary,High-skilled,'Manual skilled',126.2,1,0,0,1,0,0,20,0,12.4,0.5,1.79,Graduate
1,17,1,9853,1,1,160,Secondary,Basic,Clerical/service,Other/unknown,144.3,1,0,0,1,0,0,18,0,9.4,-0.8,-3.12,Graduate
1,1,2,9500,1,1,131,Basic,Basic,'Manual skilled',Clerical/service,122.1,1,0,0,1,0,0,18,0,15.5,2.8,-4.06,Graduate
1,1,1,9500,1,1,137,Basic,Basic,'Manual skilled',Low-skilled,130.8,1,0,0,1,0,1,18,0,7.6,2.6,0.32,Graduate
1,1,1,9238,1,1,142,Unknown,Basic,Clerical/service,'Manual skilled',127.3,0,0,0,1,0,1,18,0,9.4,-0.8,-3.12,Graduate
1,17,1,9238,1,1,134,Basic,Basic,'Manual skilled','Manual skilled',124.2,0,0,0,1,0,1,21,0,15.5,2.8,-4.06,Graduate
1,1,5,9254,1,1,128,Basic,Secondary,'Manual skilled',Other/unknown,116.5,1,0,0,1,0,1,18,0,8.9,1.4,3.51,Graduate
1,43,3,9500,1,1,139,Basic,Basic,Low-skilled,'Manual skilled',146.5,0,0,0,1,0,0,21,0,7.6,2.6,0.32,Graduate
1,1,1,9670,1,1,133.1,Basic,Basic,Clerical/service,Low-skilled,105,1,0,0,1,0,0,20,0,15.5,2.8,-4.06,Graduate
1,1,1,9670,1,1,140,Basic,Basic,Clerical/service,Low-skilled,131.3,1,0,0,1,0,1,18,0,10.8,1.4,1.74,Graduate
1,17,1,9500,1,1,145,Basic,Basic,Clerical/service,'Manual skilled',136.8,1,0,0,1,0,0,18,0,9.4,-0.8,-3.12,Graduate
1,1,5,9500,1,1,144,Basic,Basic,'Manual skilled','Manual skilled',136,1,0,0,1,0,1,19,0,7.6,2.6,0.32,Graduate
1,1,1,9238,1,1,163,Basic,Basic,Clerical/service,'Manual skilled',155,0,0,0,1,0,1,21,0,9.4,-0.8,-3.12,Graduate
1,17,4,9500,1,1,148,Higher,Basic,Clerical/service,'Manual skilled',131.9,1,0,0,1,0,1,18,0,15.5,2.8,-4.06,Graduate
1,1,1,9238,1,1,136,Basic,Basic,Other/unknown,'Manual skilled',133.2,1,0,0,1,0,0,19,0,7.6,2.6,0.32,Graduate
1,42,1,9254,1,1,154,Basic,Basic,High-skilled,High-skilled,154,1,0,0,1,0,0,28,0,9.4,-0.8,-3.12,Graduate
1,1,1,9500,1,1,156,Higher,Higher,High-skilled,High-skilled,140.8,0,0,0,1,0,0,18,0,12.7,3.7,-1.7,Graduate
1,1,1,9500,1,1,129,Basic,Basic,Clerical/service,Clerical/service,120.8,1,0,0,1,0,1,20,0,10.8,1.4,1.74,Graduate
1,43,1,9130,1,1,140,Higher,Higher,High-skilled,High-skilled,140,0,0,0,1,0,0,20,0,15.5,2.8,-4.06,Graduate
1,1,1,9147,1,1,150,Basic,Basic,Low-skilled,Low-skilled,134.6,0,0,0,1,1,0,20,1,9.4,-0.8,-3.12,Graduate
1,1,2,9500,1,1,140,Basic,Basic,Clerical/service,'Manual skilled',124.3,1,0,0,1,0,1,19,0,13.9,-0.3,0.79,Graduate
1,16,4,9238,1,1,135,Basic,Basic,Low-skilled,Low-skilled,121,1,0,0,1,0,0,18,0,10.8,1.4,1.74,Graduate
1,43,1,9500,1,1,134,Basic,Basic,Clerical/service,'Manual skilled',120.7,0,0,0,1,0,1,19,0,16.2,0.3,-0.92,Graduate
1,17,1,9773,1,1,125,Basic,Basic,Clerical/service,'Manual skilled',120.1,0,0,0,1,0,1,18,0,16.2,0.3,-0.92,Graduate
1,7,1,9003,1,4,150,Secondary,Secondary,Clerical/service,'Manual skilled',150,0,0,0,1,1,0,28,0,16.2,0.3,-0.92,Graduate
1,39,1,9085,1,40,130,Higher,Higher,High-skilled,High-skilled,160,1,0,0,1,0,0,27,0,13.9,-0.3,0.79,Graduate
1,1,1,9238,1,1,117,Basic,Basic,'Manual skilled','Manual skilled',113.2,1,0,1,1,0,0,20,0,11.1,0.6,2.02,Graduate
2,43,1,9991,0,3,130,Basic,Basic,Low-skilled,Low-skilled,130,0,0,0,1,0,0,41,0,12.7,3.7,-1.7,Graduate
1,44,2,9238,1,39,150,Higher,Basic,Clerical/service,Low-skilled,147,1,0,0,1,0,0,19,0,12.4,0.5,1.79,Graduate
2,7,1,9238,1,3,150,Basic,Basic,Low-skilled,Low-skilled,150,0,0,0,1,0,0,31,0,12.7,3.7,-1.7,Graduate
1,44,1,9003,1,39,150,Basic,Basic,Low-skilled,Low-skilled,150,0,0,0,1,1,1,24,0,13.9,-0.3,0.79,Graduate
1,1,1,9070,1,1,182,Basic,Secondary,Clerical/service,'Manual skilled',156.8,1,0,0,1,0,0,18,0,10.8,1.4,1.74,Graduate
1,1,2,9147,1,1,119,Basic,Basic,Clerical/service,Clerical/service,113.8,1,0,0,1,0,0,20,0,7.6,2.6,0.32,Graduate
1,17,5,9070,1,1,131,Basic,Basic,Low-skilled,Low-skilled,126.1,1,0,0,0,0,0,18,0,7.6,2.6,0.32,Graduate
1,17,4,9085,1,1,128,Basic,Basic,Clerical/service,Low-skilled,117.9,1,0,0,1,0,0,20,0,10.8,1.4,1.74,Graduate
1,1,1,9238,1,1,141,Basic,Secondary,'Manual skilled',High-skilled,128.8,1,0,0,1,1,0,18,0,10.8,1.4,1.74,Graduate
1,39,1,9003,1,1,130,Basic,Basic,'Manual skilled','Manual skilled',120,0,0,0,1,1,0,32,0,15.5,2.8,-4.06,Graduate
1,1,6,9254,1,1,129,Basic,Basic,Low-skilled,Clerical/service,117.8,1,0,0,1,0,0,18,0,8.9,1.4,3.51,Graduate
1,17,1,9238,1,1,120,Basic,Basic,Clerical/service,Low-skilled,117.1,1,0,0,1,0,1,18,0,12.7,3.7,-1.7,Graduate
1,1,4,9773,1,1,133,Secondary,Basic,Low-skilled,Low-skilled,119.7,1,0,0,1,1,0,19,0,16.2,0.3,-0.92,Graduate
1,1,2,9853,1,1,112,Higher,Secondary,High-skilled,Clerical/service,111,0,0,0,1,0,0,21,0,9.4,-0.8,-3.12,Graduate
1,17,1,9773,1,1,136,Basic,Basic,Low-skilled,Low-skilled,121.7,1,0,0,1,1,1,19,0,12.7,3.7,-1.7,Graduate
1,1,1,9500,1,1,141,Basic,Basic,'Manual skilled',Low-skilled,139.8,0,0,0,1,0,1,19,0,12.7,3.7,-1.7,Graduate
1,17,1,9238,1,1,120,Basic,Secondary,Low-skilled,Clerical/service,113.4,1,0,0,1,0,1,20,0,12.7,3.7,-1.7,Graduate
1,1,1,9254,1,1,138,Basic,Basic,Low-skilled,Other/unknown,133.1,0,0,0,1,0,0,18,0,15.5,2.8,-4.06,Graduate
1,42,1,9500,1,1,100,Higher,Basic,High-skilled,'Manual skilled',130,1,0,0,1,0,0,25,0,7.6,2.6,0.32,Graduate
1,1,1,171,1,1,156,Basic,Basic,Low-skilled,High-skilled,153.6,1,0,0,1,0,0,18,0,9.4,-0.8,-3.12,Graduate
1,1,5,9500,1,1,141,Basic,Basic,Low-skilled,'Manual skilled',126.3,1,0,0,1,0,0,20,0,12.7,3.7,-1.7,Graduate
1,1,3,9773,1,1,129,Basic,Basic,Clerical/service,Clerical/service,142,1,0,0,1,0,0,19,0,9.4,-0.8,-3.12,Graduate
1,1,4,9238,1,1,130,Secondary,Basic,Clerical/service,Clerical/service,124.8,1,0,0,1,0,0,19,0,8.9,1.4,3.51,Graduate
1,17,3,9500,1,1,144,Secondary,Basic,Low-skilled,Low-skilled,126.5,1,0,0,1,0,1,20,0,10.8,1.4,1.74,Graduate
1,18,2,9147,1,1,102,Basic,Basic,Low-skilled,Clerical/service,101.7,1,0,0,1,0,1,20,0,8.9,1.4,3.51,Graduate
5,7,1,9500,1,40,150,Basic,Basic,Clerical/service,Low-skilled,150,0,0,0,1,0,0,29,0,12.7,3.7,-1.7,Graduate
1,51,1,9070,1,1,135,Higher,Secondary,High-skilled,Clerical/service,121.8,0,0,0,1,0,1,19,0,11.1,0.6,2.02,Graduate
1,1,1,171,1,1,136,Basic,Basic,Clerical/service,'Manual skilled',129,1,0,0,1,1,1,19,0,13.9,-0.3,0.79,Graduate
1,1,1,9238,1,1,167,Basic,Basic,Low-skilled,'Manual skilled',156.2,0,0,0,1,0,1,18,0,15.5,2.8,-4.06,Graduate
1,1,4,9500,1,1,168,Basic,Secondary,Low-skilled,Other/unknown,166,1,0,0,1,0,0,18,0,9.4,-0.8,-3.12,Graduate
1,1,1,9254,1,1,152,Basic,Basic,Low-skilled,Low-skilled,137,1,0,0,1,0,1,22,0,9.4,-0.8,-3.12,Graduate
1,17,2,9500,1,1,135,Basic,Basic,Low-skilled,Clerical/service,129.8,1,0,0,1,0,0,18,0,13.9,-0.3,0.79,Graduate
2,43,1,9991,0,1,140,Basic,Basic,Clerical/service,High-skilled,122.7,0,0,0,1,1,0,38,0,13.9,-0.3,0.79,Graduate
1,1,1,9130,1,1,137,Higher,Basic,High-skilled,Clerical/service,129.3,1,0,0,1,0,0,18,0,9.4,-0.8,-3.12,Graduate
1,1,6,9773,1,1,125,Secondary,Secondary,Clerical/service,Clerical/service,122.2,0,0,0,1,1,0,19,0,15.5,2.8,-4.06,Graduate
