@relation InstanceResultListener

@attribute Key_Dataset {'data_all-weka.filters.unsupervised.attribute.Remove-R8,30-33-weka.filters.unsupervised.attribute.Remove-R27-28-weka.filters.unsupervised.attribute.NumericToNominal-R1,2,4,5,6,8-11,13-18,20-weka.filters.supervised.instance.StratifiedRemoveFolds-S0-V-N5-F1'}
@attribute Key_Run {1,2,3,4,5,6,7,8,9,10}
@attribute Key_Fold {1,2,3,4,5,6,7,8,9,10}
@attribute Key_Scheme {weka.classifiers.trees.RandomForest,weka.classifiers.functions.Logistic}
@attribute Key_Scheme_options {'-P 100 -I 100 -num-slots 1 -K 6 -M 1.0 -V 0.001 -S 1','-R 3.0 -M -1 -num-decimal-places 4'}
@attribute Key_Scheme_version_ID {1116839470751428698,3932117032546553727}
@attribute Date_time numeric
@attribute Number_of_training_instances numeric
@attribute Number_of_testing_instances numeric
@attribute Number_correct numeric
@attribute Number_incorrect numeric
@attribute Number_unclassified numeric
@attribute Percent_correct numeric
@attribute Percent_incorrect numeric
@attribute Percent_unclassified numeric
@attribute Kappa_statistic numeric
@attribute Mean_absolute_error numeric
@attribute Root_mean_squared_error numeric
@attribute Relative_absolute_error numeric
@attribute Root_relative_squared_error numeric
@attribute SF_prior_entropy numeric
@attribute SF_scheme_entropy numeric
@attribute SF_entropy_gain numeric
@attribute SF_mean_prior_entropy numeric
@attribute SF_mean_scheme_entropy numeric
@attribute SF_mean_entropy_gain numeric
@attribute KB_information numeric
@attribute KB_mean_information numeric
@attribute KB_relative_information numeric
@attribute True_positive_rate numeric
@attribute Num_true_positives numeric
@attribute False_positive_rate numeric
@attribute Num_false_positives numeric
@attribute True_negative_rate numeric
@attribute Num_true_negatives numeric
@attribute False_negative_rate numeric
@attribute Num_false_negatives numeric
@attribute IR_precision numeric
@attribute IR_recall numeric
@attribute F_measure numeric
@attribute Matthews_correlation numeric
@attribute Area_under_ROC numeric
@attribute Area_under_PRC numeric
@attribute Weighted_avg_true_positive_rate numeric
@attribute Weighted_avg_false_positive_rate numeric
@attribute Weighted_avg_true_negative_rate numeric
@attribute Weighted_avg_false_negative_rate numeric
@attribute Weighted_avg_IR_precision numeric
@attribute Weighted_avg_IR_recall numeric
@attribute Weighted_avg_F_measure numeric
@attribute Weighted_avg_matthews_correlation numeric
@attribute Weighted_avg_area_under_ROC numeric
@attribute Weighted_avg_area_under_PRC numeric
@attribute Unweighted_macro_avg_F_measure numeric
@attribute Unweighted_micro_avg_F_measure numeric
@attribute Elapsed_Time_training numeric
@attribute Elapsed_Time_testing numeric
@attribute UserCPU_Time_training numeric
@attribute UserCPU_Time_testing numeric
@attribute UserCPU_Time_millis_training numeric
@attribute UserCPU_Time_millis_testing numeric
@attribute Serialized_Model_Size numeric
@attribute Serialized_Train_Set_Size numeric
@attribute Serialized_Test_Set_Size numeric
@attribute Coverage_of_Test_Cases_By_Regions numeric
@attribute Size_of_Predicted_Regions numeric
@attribute Summary string
@attribute measureOutOfBagError numeric

@data

'data_all-weka.filters.unsupervised.attribute.Remove-R8,30-33-weka.filters.unsupervised.attribute.Remove-R27-28-weka.filters.unsupervised.attribute.NumericToNominal-R1,2,4,5,6,8-11,13-18,20-weka.filters.supervised.instance.StratifiedRemoveFolds-S0-V-N5-F1',1,1,weka.classifiers.trees.RandomForest,'-P 100 -I 100 -num-slots 1 -K 6 -M 1.0 -V 0.001 -S 1',1116839470751428698,20261008.1418,3185,354,282,72,0,79.661017,20.338983,0,0.593155,0.299507,0.381179,59.901637,76.236076,353.99751,229.330993,124.666517,0.999993,0.647828,0.352165,153.07349,0.432411,43.241403,0.808989,144,0.215909,38,0.784091,138,0.191011,34,0.791209,0.808989,0.8,0.593307,0.873484,0.871257,0.79661,0.20353,0.79647,0.20339,0.796736,0.79661,0.796571,0.593307,0.873484,0.873172,0.796552,0.79661,0.399,0.009,0.34533,0.008541,345.33,8.541,9635576,862635,101096,99.717514,93.644068,?,-1
'data_all-weka.filters.unsupervised.attribute.Remove-R8,30-33-weka.filters.unsupervised.attribute.Remove-R27-28-weka.filters.unsupervised.attribute.NumericToNominal-R1,2,4,5,6,8-11,13-18,20-weka.filters.supervised.instance.StratifiedRemoveFolds-S0-V-N5-F1',1,2,weka.classifiers.trees.RandomForest,'-P 100 -I 100 -num-slots 1 -K 6 -M 1.0 -V 0.001 -S 1',1116839470751428698,20261008.1418,3185,354,292,62,0,82.485876,17.514124,0,0.649818,0.282946,0.358377,56.589404,71.675849,353.99751,207.187973,146.809537,0.999993,0.585277,0.414716,166.298827,0.469771,46.9774,0.797753,142,0.147727,26,0.852273,150,0.202247,36,0.845238,0.797753,0.820809,0.650857,0.900568,0.913297,0.824859,0.174833,0.825167,0.175141,0.825954,0.824859,0.824747,0.650857,0.900568,0.899722,0.824769,0.824859,0.275,0.007,0.261481,0.006999,261.481,6.999,9782811,862635,101096,99.717514,92.937853,?,-1
'data_all-weka.filters.unsupervised.attribute.Remove-R8,30-33-weka.filters.unsupervised.attribute.Remove-R27-28-weka.filters.unsupervised.attribute.NumericToNominal-R1,2,4,5,6,8-11,13-18,20-weka.filters.supervised.instance.StratifiedRemoveFolds-S0-V-N5-F1',1,3,weka.classifiers.trees.RandomForest,'-P 100 -I 100 -num-slots 1 -K 6 -M 1.0 -V 0.001 -S 1',1116839470751428698,20261008.1418,3185,354,291,63,0,82.20339,17.79661,0,0.644068,0.283499,0.358317,56.699717,71.663292,354.000629,208.738427,145.262201,1.000002,0.589657,0.410345,166.281548,0.469722,46.972105,0.813559,144,0.169492,30,0.830508,147,0.186441,33,0.827586,0.813559,0.820513,0.64416,0.899837,0.908193,0.822034,0.177966,0.822034,0.177966,0.822126,0.822034,0.822021,0.64416,0.899837,0.896517,0.822021,0.822034,0.284,0.007,0.270338,0.007534,270.338,7.534,9790583,862635,101096,100,94.774011,?,-1
'data_all-weka.filters.unsupervised.attribute.Remove-R8,30-33-weka.filters.unsupervised.attribute.Remove-R27-28-weka.filters.unsupervised.attribute.NumericToNominal-R1,2,4,5,6,8-11,13-18,20-weka.filters.supervised.instance.StratifiedRemoveFolds-S0-V-N5-F1',1,4,weka.classifiers.trees.RandomForest,'-P 100 -I 100 -num-slots 1 -K 6 -M 1.0 -V 0.001 -S 1',1116839470751428698,20261008.1418,3185,354,295,59,0,83.333333,16.666667,0,0.666667,0.285424,0.353626,57.084811,70.725155,354.000629,203.382827,150.617802,1.000002,0.574528,0.425474,165.593637,0.467779,46.77778,0.762712,135,0.096045,17,0.903955,160,0.237288,42,0.888158,0.762712,0.820669,0.673418,0.907402,0.924969,0.833333,0.166667,0.833333,0.166667,0.840119,0.833333,0.832498,0.673418,0.907402,0.907113,0.832498,0.833333,0.259,0.012,0.258893,0.011651,258.893,11.651,9703248,862635,101096,100,95.621469,?,-1
'data_all-weka.filters.unsupervised.attribute.Remove-R8,30-33-weka.filters.unsupervised.attribute.Remove-R27-28-weka.filters.unsupervised.attribute.NumericToNominal-R1,2,4,5,6,8-11,13-18,20-weka.filters.supervised.instance.StratifiedRemoveFolds-S0-V-N5-F1',1,5,weka.classifiers.trees.RandomForest,'-P 100 -I 100 -num-slots 1 -K 6 -M 1.0 -V 0.001 -S 1',1116839470751428698,20261008.1418,3185,354,295,59,0,83.333333,16.666667,0,0.666667,0.289957,0.36638,57.991369,73.275961,354.000629,221.511048,132.48958,1.000002,0.625737,0.374264,162.555728,0.459197,45.919616,0.762712,135,0.096045,17,0.903955,160,0.237288,42,0.888158,0.762712,0.820669,0.673418,0.883989,0.90829,0.833333,0.166667,0.833333,0.166667,0.840119,0.833333,0.832498,0.673418,0.883989,0.869139,0.832498,0.833333,0.273,0.01,0.26023,0.010828,260.23,10.828,9849289,862635,101096,99.435028,95.621469,?,-1
'data_all-weka.filters.unsupervised.attribute.Remove-R8,30-33-weka.filters.unsupervised.attribute.Remove-R27-28-weka.filters.unsupervised.attribute.NumericToNominal-R1,2,4,5,6,8-11,13-18,20-weka.filters.supervised.instance.StratifiedRemoveFolds-S0-V-N5-F1',1,6,weka.classifiers.trees.RandomForest,'-P 100 -I 100 -num-slots 1 -K 6 -M 1.0 -V 0.001 -S 1',1116839470751428698,20261008.1418,3185,354,293,61,0,82.768362,17.231638,0,0.655367,0.276323,0.350877,55.264654,70.17533,354.000629,203.135652,150.864977,1.000002,0.57383,0.426172,171.887092,0.485557,48.555589,0.80226,142,0.146893,26,0.853107,151,0.19774,35,0.845238,0.80226,0.823188,0.656216,0.90753,0.925636,0.827684,0.172316,0.827684,0.172316,0.828533,0.827684,0.827572,0.656216,0.90753,0.900353,0.827572,0.827684,0.274,0.011,0.259829,0.010537,259.829,10.537,9737541,862635,101096,99.717514,94.491525,?,-1
'data_all-weka.filters.unsupervised.attribute.Remove-R8,30-33-weka.filters.unsupervised.attribute.Remove-R27-28-weka.filters.unsupervised.attribute.NumericToNominal-R1,2,4,5,6,8-11,13-18,20-weka.filters.supervised.instance.StratifiedRemoveFolds-S0-V-N5-F1',1,7,weka.classifiers.trees.RandomForest,'-P 100 -I 100 -num-slots 1 -K 6 -M 1.0 -V 0.001 -S 1',1116839470751428698,20261008.1418,3185,354,286,68,0,80.79096,19.20904,0,0.615819,0.301076,0.374564,60.215212,74.912746,354.000629,223.914507,130.086121,1.000002,0.632527,0.367475,153.457747,0.433496,43.349569,0.762712,135,0.146893,26,0.853107,151,0.237288,42,0.838509,0.762712,0.798817,0.618351,0.881978,0.892933,0.80791,0.19209,0.80791,0.19209,0.810446,0.80791,0.807516,0.618351,0.881978,0.875702,0.807516,0.80791,0.259,0.012,0.258274,0.012107,258.274,12.107,9655753,862635,101096,99.717514,96.045198,?,-1
'data_all-weka.filters.unsupervised.attribute.Remove-R8,30-33-weka.filters.unsupervised.attribute.Remove-R27-28-weka.filters.unsupervised.attribute.NumericToNominal-R1,2,4,5,6,8-11,13-18,20-weka.filters.supervised.instance.StratifiedRemoveFolds-S0-V-N5-F1',1,8,weka.classifiers.trees.RandomForest,'-P 100 -I 100 -num-slots 1 -K 6 -M 1.0 -V 0.001 -S 1',1116839470751428698,20261008.1418,3185,354,295,59,0,83.333333,16.666667,0,0.666667,0.288048,0.361023,57.609576,72.204467,354.000629,213.109935,140.890694,1.000002,0.602005,0.397996,163.519914,0.461921,46.191984,0.80791,143,0.141243,25,0.858757,152,0.19209,34,0.85119,0.80791,0.828986,0.66753,0.896103,0.915383,0.833333,0.166667,0.833333,0.166667,0.834197,0.833333,0.833226,0.66753,0.896103,0.886936,0.833226,0.833333,0.277,0.01,0.261838,0.010357,261.838,10.357,9625837,862635,101096,99.717514,94.350282,?,-1
'data_all-weka.filters.unsupervised.attribute.Remove-R8,30-33-weka.filters.unsupervised.attribute.Remove-R27-28-weka.filters.unsupervised.attribute.NumericToNominal-R1,2,4,5,6,8-11,13-18,20-weka.filters.supervised.instance.StratifiedRemoveFolds-S0-V-N5-F1',1,9,weka.classifiers.trees.RandomForest,'-P 100 -I 100 -num-slots 1 -K 6 -M 1.0 -V 0.001 -S 1',1116839470751428698,20261008.1418,3185,354,304,50,0,85.875706,14.124294,0,0.717514,0.263767,0.330712,52.753333,66.142341,354.000629,181.774647,172.225981,1.000002,0.513488,0.486514,181.121065,0.511641,51.164052,0.858757,152,0.141243,25,0.858757,152,0.141243,25,0.858757,0.858757,0.858757,0.717514,0.936975,0.945214,0.858757,0.141243,0.858757,0.141243,0.858757,0.858757,0.858757,0.717514,0.936975,0.939227,0.858757,0.858757,0.278,0.01,0.26209,0.009639,262.09,9.639,9936612,862635,101096,100,94.067797,?,-1
'data_all-weka.filters.unsupervised.attribute.Remove-R8,30-33-weka.filters.unsupervised.attribute.Remove-R27-28-weka.filters.unsupervised.attribute.NumericToNominal-R1,2,4,5,6,8-11,13-18,20-weka.filters.supervised.instance.StratifiedRemoveFolds-S0-V-N5-F1',1,10,weka.classifiers.trees.RandomForest,'-P 100 -I 100 -num-slots 1 -K 6 -M 1.0 -V 0.001 -S 1',1116839470751428698,20261008.1418,3186,353,291,62,0,82.436261,17.563739,0,0.648846,0.286173,0.363232,57.234775,72.646524,352.998591,218.784056,134.214535,0.999996,0.619785,0.380211,164.019123,0.464643,46.464526,0.762712,135,0.113636,20,0.886364,156,0.237288,42,0.870968,0.762712,0.813253,0.653943,0.888675,0.914022,0.824363,0.175287,0.824713,0.175637,0.829541,0.824363,0.823709,0.653943,0.888675,0.871367,0.823739,0.824363,0.264,0.012,0.264009,0.011445,264.009,11.445,9758625,862904,100827,99.150142,93.626062,?,-1
'data_all-weka.filters.unsupervised.attribute.Remove-R8,30-33-weka.filters.unsupervised.attribute.Remove-R27-28-weka.filters.unsupervised.attribute.NumericToNominal-R1,2,4,5,6,8-11,13-18,20-weka.filters.supervised.instance.StratifiedRemoveFolds-S0-V-N5-F1',2,1,weka.classifiers.trees.RandomForest,'-P 100 -I 100 -num-slots 1 -K 6 -M 1.0 -V 0.001 -S 1',1116839470751428698,20261008.1418,3185,354,278,76,0,78.531073,21.468927,0,0.570621,0.29431,0.376234,58.861939,75.246655,354.000629,228.492809,125.50782,1.000002,0.64546,0.354542,157.120349,0.443843,44.384201,0.734463,130,0.163842,29,0.836158,148,0.265537,47,0.81761,0.734463,0.77381,0.573595,0.876105,0.892514,0.785311,0.214689,0.785311,0.214689,0.788292,0.785311,0.784754,0.573595,0.876105,0.862425,0.784754,0.785311,0.265,0.01,0.251104,0.009918,251.104,9.918,9519066,862635,101096,99.435028,94.774011,?,-1
'data_all-weka.filters.unsupervised.attribute.Remove-R8,30-33-weka.filters.unsupervised.attribute.Remove-R27-28-weka.filters.unsupervised.attribute.NumericToNominal-R1,2,4,5,6,8-11,13-18,20-weka.filters.supervised.instance.StratifiedRemoveFolds-S0-V-N5-F1',2,2,weka.classifiers.trees.RandomForest,'-P 100 -I 100 -num-slots 1 -K 6 -M 1.0 -V 0.001 -S 1',1116839470751428698,20261008.1418,3185,354,298,56,0,84.180791,15.819209,0,0.683616,0.281618,0.362459,56.323554,72.491703,354.000629,213.970712,140.029917,1.000002,0.604437,0.395565,167.438914,0.472991,47.299044,0.813559,144,0.129944,23,0.870056,154,0.186441,33,0.862275,0.813559,0.837209,0.684709,0.89157,0.904222,0.841808,0.158192,0.841808,0.158192,0.842902,0.841808,0.841682,0.684709,0.89157,0.884576,0.841682,0.841808,0.272,0.009,0.258064,0.008736,258.064,8.736,9767704,862635,101096,99.717514,94.632768,?,-1
'data_all-weka.filters.unsupervised.attribute.Remove-R8,30-33-weka.filters.unsupervised.attribute.Remove-R27-28-weka.filters.unsupervised.attribute.NumericToNominal-R1,2,4,5,6,8-11,13-18,20-weka.filters.supervised.instance.StratifiedRemoveFolds-S0-V-N5-F1',2,3,weka.classifiers.trees.RandomForest,'-P 100 -I 100 -num-slots 1 -K 6 -M 1.0 -V 0.001 -S 1',1116839470751428698,20261008.1418,3185,354,298,56,0,84.180791,15.819209,0,0.683616,0.293791,0.361938,58.758254,72.387565,354.000629,212.547374,141.453255,1.000002,0.600416,0.399585,159.75402,0.451283,45.128174,0.79096,140,0.107345,19,0.892655,158,0.20904,37,0.880503,0.79096,0.833333,0.687178,0.899247,0.914133,0.841808,0.158192,0.841808,0.158192,0.84538,0.841808,0.841398,0.687178,0.899247,0.895006,0.841398,0.841808,0.262,0.011,0.26236,0.011042,262.36,11.042,9815720,862635,101096,99.717514,96.610169,?,-1
'data_all-weka.filters.unsupervised.attribute.Remove-R8,30-33-weka.filters.unsupervised.attribute.Remove-R27-28-weka.filters.unsupervised.attribute.NumericToNominal-R1,2,4,5,6,8-11,13-18,20-weka.filters.supervised.instance.StratifiedRemoveFolds-S0-V-N5-F1',2,4,weka.classifiers.trees.RandomForest,'-P 100 -I 100 -num-slots 1 -K 6 -M 1.0 -V 0.001 -S 1',1116839470751428698,20261008.1418,3185,354,291,63,0,82.20339,17.79661,0,0.644068,0.280654,0.354098,56.130711,70.819584,354.000629,202.090682,151.909947,1.000002,0.570878,0.429124,167.945989,0.474424,47.442286,0.757062,134,0.112994,20,0.887006,157,0.242938,43,0.87013,0.757062,0.809668,0.649575,0.90903,0.92049,0.822034,0.177966,0.822034,0.177966,0.827565,0.822034,0.821279,0.649575,0.90903,0.911493,0.821279,0.822034,0.279,0.011,0.264474,0.011029,264.474,11.029,9698775,862635,101096,100,94.774011,?,-1
'data_all-weka.filters.unsupervised.attribute.Remove-R8,30-33-weka.filters.unsupervised.attribute.Remove-R27-28-weka.filters.unsupervised.attribute.NumericToNominal-R1,2,4,5,6,8-11,13-18,20-weka.filters.supervised.instance.StratifiedRemoveFolds-S0-V-N5-F1',2,5,weka.classifiers.trees.RandomForest,'-P 100 -I 100 -num-slots 1 -K 6 -M 1.0 -V 0.001 -S 1',1116839470751428698,20261008.1418,3185,354,302,52,0,85.310734,14.689266,0,0.706215,0.276839,0.348197,55.367874,69.639339,354.000629,199.986628,154.014,1.000002,0.564934,0.435068,172.07421,0.486085,48.608448,0.858757,152,0.152542,27,0.847458,150,0.141243,25,0.849162,0.858757,0.853933,0.70626,0.911599,0.928063,0.853107,0.146893,0.853107,0.146893,0.853152,0.853107,0.853103,0.70626,0.911599,0.904715,0.853103,0.853107,0.288,0.009,0.272083,0.009294,272.083,9.294,9736927,862635,101096,100,96.186441,?,-1
'data_all-weka.filters.unsupervised.attribute.Remove-R8,30-33-weka.filters.unsupervised.attribute.Remove-R27-28-weka.filters.unsupervised.attribute.NumericToNominal-R1,2,4,5,6,8-11,13-18,20-weka.filters.supervised.instance.StratifiedRemoveFolds-S0-V-N5-F1',2,6,weka.classifiers.trees.RandomForest,'-P 100 -I 100 -num-slots 1 -K 6 -M 1.0 -V 0.001 -S 1',1116839470751428698,20261008.1418,3185,354,294,60,0,83.050847,16.949153,0,0.661017,0.292245,0.36971,58.449091,73.941872,354.000629,223.113729,130.886899,1.000002,0.630265,0.369737,160.130279,0.452345,45.234462,0.79661,141,0.135593,24,0.864407,153,0.20339,36,0.854545,0.79661,0.824561,0.662541,0.882792,0.896692,0.830508,0.169492,0.830508,0.169492,0.832035,0.830508,0.830313,0.662541,0.882792,0.871546,0.830313,0.830508,0.264,0.011,0.263684,0.011545,263.684,11.545,9619885,862635,101096,99.435028,93.926554,?,-1
'data_all-weka.filters.unsupervised.attribute.Remove-R8,30-33-weka.filters.unsupervised.attribute.Remove-R27-28-weka.filters.unsupervised.attribute.NumericToNominal-R1,2,4,5,6,8-11,13-18,20-weka.filters.supervised.instance.StratifiedRemoveFolds-S0-V-N5-F1',2,7,weka.classifiers.trees.RandomForest,'-P 100 -I 100 -num-slots 1 -K 6 -M 1.0 -V 0.001 -S 1',1116839470751428698,20261008.1418,3185,354,294,60,0,83.050847,16.949153,0,0.661017,0.284757,0.353596,56.951446,70.719105,354.000629,203.631902,150.368727,1.000002,0.575231,0.42477,165.735463,0.468179,46.817844,0.785311,139,0.124294,22,0.875706,155,0.214689,38,0.863354,0.785311,0.822485,0.663734,0.909892,0.92011,0.830508,0.169492,0.830508,0.169492,0.833231,0.830508,0.830162,0.663734,0.909892,0.908516,0.830162,0.830508,0.371,0.01,0.31554,0.010173,315.54,10.173,9818528,862635,101096,99.717514,95.480226,?,-1
'data_all-weka.filters.unsupervised.attribute.Remove-R8,30-33-weka.filters.unsupervised.attribute.Remove-R27-28-weka.filters.unsupervised.attribute.NumericToNominal-R1,2,4,5,6,8-11,13-18,20-weka.filters.supervised.instance.StratifiedRemoveFolds-S0-V-N5-F1',2,8,weka.classifiers.trees.RandomForest,'-P 100 -I 100 -num-slots 1 -K 6 -M 1.0 -V 0.001 -S 1',1116839470751428698,20261008.1418,3185,354,299,55,0,84.463277,15.536723,0,0.689325,0.267555,0.341056,53.511216,68.211605,353.99751,192.359999,161.637511,0.999993,0.54339,0.456603,178.241524,0.503507,50.351067,0.825843,147,0.136364,24,0.863636,152,0.174157,31,0.859649,0.825843,0.842407,0.689865,0.917486,0.93346,0.844633,0.155154,0.844846,0.155367,0.845207,0.844633,0.844589,0.689865,0.917486,0.914275,0.844602,0.844633,0.293,0.009,0.267426,0.008771,267.426,8.771,9792222,862635,101096,100,94.491525,?,-1
'data_all-weka.filters.unsupervised.attribute.Remove-R8,30-33-weka.filters.unsupervised.attribute.Remove-R27-28-weka.filters.unsupervised.attribute.NumericToNominal-R1,2,4,5,6,8-11,13-18,20-weka.filters.supervised.instance.StratifiedRemoveFolds-S0-V-N5-F1',2,9,weka.classifiers.trees.RandomForest,'-P 100 -I 100 -num-slots 1 -K 6 -M 1.0 -V 0.001 -S 1',1116839470751428698,20261008.1418,3185,354,287,67,0,81.073446,18.926554,0,0.621566,0.301219,0.373135,60.244029,74.627363,353.99751,220.442194,133.555316,0.999993,0.622718,0.377275,152.803852,0.431649,43.165234,0.786517,140,0.164773,29,0.835227,147,0.213483,38,0.828402,0.786517,0.806916,0.62237,0.88464,0.898677,0.810734,0.18899,0.81101,0.189266,0.811594,0.810734,0.810639,0.62237,0.88464,0.883746,0.81066,0.810734,0.281,0.013,0.277574,0.012525,277.574,12.525,9673409,862635,101096,100,95.056497,?,-1
'data_all-weka.filters.unsupervised.attribute.Remove-R8,30-33-weka.filters.unsupervised.attribute.Remove-R27-28-weka.filters.unsupervised.attribute.NumericToNominal-R1,2,4,5,6,8-11,13-18,20-weka.filters.supervised.instance.StratifiedRemoveFolds-S0-V-N5-F1',2,10,weka.classifiers.trees.RandomForest,'-P 100 -I 100 -num-slots 1 -K 6 -M 1.0 -V 0.001 -S 1',1116839470751428698,20261008.1418,3186,353,274,79,0,77.620397,22.379603,0,0.552512,0.306431,0.384358,61.286385,76.871741,352.998591,234.48607,118.512521,0.999996,0.664266,0.33573,148.25504,0.419986,41.998763,0.734463,130,0.181818,32,0.818182,144,0.265537,47,0.802469,0.734463,0.766962,0.554517,0.863668,0.883226,0.776204,0.223559,0.776441,0.223796,0.778267,0.776204,0.775826,0.554517,0.863668,0.852349,0.775851,0.776204,0.282,0.01,0.263826,0.010433,263.826,10.433,9767528,862904,100827,99.433428,95.750708,?,-1
'data_all-weka.filters.unsupervised.attribute.Remove-R8,30-33-weka.filters.unsupervised.attribute.Remove-R27-28-weka.filters.unsupervised.attribute.NumericToNominal-R1,2,4,5,6,8-11,13-18,20-weka.filters.supervised.instance.StratifiedRemoveFolds-S0-V-N5-F1',3,1,weka.classifiers.trees.RandomForest,'-P 100 -I 100 -num-slots 1 -K 6 -M 1.0 -V 0.001 -S 1',1116839470751428698,20261008.1418,3185,354,286,68,0,80.79096,19.20904,0,0.615819,0.296926,0.37557,59.38524,75.113975,354.000629,223.194751,130.805877,1.000002,0.630494,0.369508,155.90959,0.440423,44.042179,0.80791,143,0.19209,34,0.80791,143,0.19209,34,0.80791,0.80791,0.80791,0.615819,0.878898,0.893625,0.80791,0.19209,0.80791,0.19209,0.80791,0.80791,0.80791,0.615819,0.878898,0.873784,0.80791,0.80791,0.284,0.008,0.268594,0.008174,268.594,8.174,9739025,862635,101096,100,94.20904,?,-1
'data_all-weka.filters.unsupervised.attribute.Remove-R8,30-33-weka.filters.unsupervised.attribute.Remove-R27-28-weka.filters.unsupervised.attribute.NumericToNominal-R1,2,4,5,6,8-11,13-18,20-weka.filters.supervised.instance.StratifiedRemoveFolds-S0-V-N5-F1',3,2,weka.classifiers.trees.RandomForest,'-P 100 -I 100 -num-slots 1 -K 6 -M 1.0 -V 0.001 -S 1',1116839470751428698,20261008.1418,3185,354,307,47,0,86.723164,13.276836,0,0.734463,0.268667,0.339539,53.733405,67.907727,354.000629,192.847522,161.153106,1.000002,0.544767,0.455235,178.620651,0.504578,50.457721,0.813559,144,0.079096,14,0.920904,163,0.186441,33,0.911392,0.813559,0.859701,0.738732,0.9195,0.935561,0.867232,0.132768,0.867232,0.132768,0.871513,0.867232,0.866848,0.738732,0.9195,0.915562,0.866848,0.867232,0.269,0.012,0.268828,0.011429,268.828,11.429,9940124,862635,101096,99.717514,95.338983,?,-1
'data_all-weka.filters.unsupervised.attribute.Remove-R8,30-33-weka.filters.unsupervised.attribute.Remove-R27-28-weka.filters.unsupervised.attribute.NumericToNominal-R1,2,4,5,6,8-11,13-18,20-weka.filters.supervised.instance.StratifiedRemoveFolds-S0-V-N5-F1',3,3,weka.classifiers.trees.RandomForest,'-P 100 -I 100 -num-slots 1 -K 6 -M 1.0 -V 0.001 -S 1',1116839470751428698,20261008.1418,3185,354,287,67,0,81.073446,18.926554,0,0.621469,0.284082,0.361268,56.816483,72.25354,354.000629,211.658155,142.342474,1.000002,0.597904,0.402097,164.784187,0.465492,46.549123,0.813559,144,0.19209,34,0.80791,143,0.186441,33,0.808989,0.813559,0.811268,0.621479,0.898688,0.909278,0.810734,0.189266,0.810734,0.189266,0.810744,0.810734,0.810733,0.621479,0.898688,0.89141,0.810733,0.810734,0.278,0.01,0.263758,0.009614,263.758,9.614,9610101,862635,101096,99.152542,93.502825,?,-1
'data_all-weka.filters.unsupervised.attribute.Remove-R8,30-33-weka.filters.unsupervised.attribute.Remove-R27-28-weka.filters.unsupervised.attribute.NumericToNominal-R1,2,4,5,6,8-11,13-18,20-weka.filters.supervised.instance.StratifiedRemoveFolds-S0-V-N5-F1',3,4,weka.classifiers.trees.RandomForest,'-P 100 -I 100 -num-slots 1 -K 6 -M 1.0 -V 0.001 -S 1',1116839470751428698,20261008.1418,3185,354,295,59,0,83.333333,16.666667,0,0.666667,0.288885,0.361013,57.776999,72.202547,354.000629,215.518072,138.482557,1.000002,0.608808,0.391194,162.604862,0.459336,45.933495,0.80791,143,0.141243,25,0.858757,152,0.19209,34,0.85119,0.80791,0.828986,0.66753,0.89722,0.915654,0.833333,0.166667,0.833333,0.166667,0.834197,0.833333,0.833226,0.66753,0.89722,0.881136,0.833226,0.833333,0.285,0.008,0.268474,0.008235,268.474,8.235,9832142,862635,101096,99.435028,94.491525,?,-1
'data_all-weka.filters.unsupervised.attribute.Remove-R8,30-33-weka.filters.unsupervised.attribute.Remove-R27-28-weka.filters.unsupervised.attribute.NumericToNominal-R1,2,4,5,6,8-11,13-18,20-weka.filters.supervised.instance.StratifiedRemoveFolds-S0-V-N5-F1',3,5,weka.classifiers.trees.RandomForest,'-P 100 -I 100 -num-slots 1 -K 6 -M 1.0 -V 0.001 -S 1',1116839470751428698,20261008.1418,3185,354,292,62,0,82.485876,17.514124,0,0.649718,0.281059,0.360057,56.211856,72.011259,354.000629,210.773398,143.227231,1.000002,0.595405,0.404597,167.493643,0.473146,47.314504,0.768362,136,0.118644,21,0.881356,156,0.231638,41,0.866242,0.768362,0.814371,0.653905,0.898018,0.9138,0.824859,0.175141,0.824859,0.175141,0.82906,0.824859,0.824298,0.653905,0.898018,0.891837,0.824298,0.824859,0.267,0.011,0.266665,0.01125,266.665,11.25,9677485,862635,101096,99.717514,94.774011,?,-1
'data_all-weka.filters.unsupervised.attribute.Remove-R8,30-33-weka.filters.unsupervised.attribute.Remove-R27-28-weka.filters.unsupervised.attribute.NumericToNominal-R1,2,4,5,6,8-11,13-18,20-weka.filters.supervised.instance.StratifiedRemoveFolds-S0-V-N5-F1',3,6,weka.classifiers.trees.RandomForest,'-P 100 -I 100 -num-slots 1 -K 6 -M 1.0 -V 0.001 -S 1',1116839470751428698,20261008.1418,3185,354,290,64,0,81.920904,18.079096,0,0.638418,0.283369,0.364638,56.673861,72.927453,354.000629,219.708253,134.292376,1.000002,0.620645,0.379357,166.085287,0.469167,46.916664,0.785311,139,0.146893,26,0.853107,151,0.214689,38,0.842424,0.785311,0.812865,0.63989,0.887836,0.896917,0.819209,0.180791,0.819209,0.180791,0.820683,0.819209,0.819001,0.63989,0.887836,0.872965,0.819001,0.819209,0.276,0.01,0.264462,0.009578,264.462,9.578,9771148,862635,101096,99.152542,94.632768,?,-1
'data_all-weka.filters.unsupervised.attribute.Remove-R8,30-33-weka.filters.unsupervised.attribute.Remove-R27-28-weka.filters.unsupervised.attribute.NumericToNominal-R1,2,4,5,6,8-11,13-18,20-weka.filters.supervised.instance.StratifiedRemoveFolds-S0-V-N5-F1',3,7,weka.classifiers.trees.RandomForest,'-P 100 -I 100 -num-slots 1 -K 6 -M 1.0 -V 0.001 -S 1',1116839470751428698,20261008.1418,3185,354,293,61,0,82.768362,17.231638,0,0.655367,0.282006,0.359754,56.401245,71.950646,354.000629,1279.357519,-925.356891,1.000002,3.614004,-2.614003,167.380193,0.472825,47.282456,0.79096,140,0.135593,24,0.864407,153,0.20904,37,0.853659,0.79096,0.821114,0.657142,0.89331,0.914305,0.827684,0.172316,0.827684,0.172316,0.829461,0.827684,0.827451,0.657142,0.89331,0.880886,0.827451,0.827684,0.282,0.008,0.266267,0.007998,266.267,7.998,9785640,862635,101096,99.717514,93.644068,?,-1
'data_all-weka.filters.unsupervised.attribute.Remove-R8,30-33-weka.filters.unsupervised.attribute.Remove-R27-28-weka.filters.unsupervised.attribute.NumericToNominal-R1,2,4,5,6,8-11,13-18,20-weka.filters.supervised.instance.StratifiedRemoveFolds-S0-V-N5-F1',3,8,weka.classifiers.trees.RandomForest,'-P 100 -I 100 -num-slots 1 -K 6 -M 1.0 -V 0.001 -S 1',1116839470751428698,20261008.1418,3185,354,291,63,0,82.20339,17.79661,0,0.644272,0.279048,0.357056,55.809816,71.411484,353.99751,210.800064,143.197446,0.999993,0.59548,0.404513,170.1225,0.480572,48.057542,0.769663,137,0.125,22,0.875,154,0.230337,41,0.861635,0.769663,0.813056,0.648012,0.894487,0.919482,0.822034,0.177371,0.822629,0.177966,0.825892,0.822034,0.821574,0.648012,0.894487,0.882363,0.821623,0.822034,0.266,0.011,0.265181,0.011433,265.181,11.433,9744524,862635,101096,99.435028,95.056497,?,-1
'data_all-weka.filters.unsupervised.attribute.Remove-R8,30-33-weka.filters.unsupervised.attribute.Remove-R27-28-weka.filters.unsupervised.attribute.NumericToNominal-R1,2,4,5,6,8-11,13-18,20-weka.filters.supervised.instance.StratifiedRemoveFolds-S0-V-N5-F1',3,9,weka.classifiers.trees.RandomForest,'-P 100 -I 100 -num-slots 1 -K 6 -M 1.0 -V 0.001 -S 1',1116839470751428698,20261008.1418,3185,354,268,86,0,75.706215,24.293785,0,0.514481,0.324247,0.395528,64.849719,79.105893,353.99751,244.888135,109.109376,0.999993,0.691774,0.308219,135.310593,0.382233,38.2236,0.691011,123,0.176136,31,0.823864,145,0.308989,55,0.798701,0.691011,0.740964,0.519269,0.854332,0.864947,0.757062,0.242187,0.757813,0.242938,0.762059,0.757062,0.756035,0.519269,0.854332,0.849335,0.75612,0.757062,0.278,0.011,0.264317,0.010181,264.317,10.181,9632885,862635,101096,99.435028,95.338983,?,-1
'data_all-weka.filters.unsupervised.attribute.Remove-R8,30-33-weka.filters.unsupervised.attribute.Remove-R27-28-weka.filters.unsupervised.attribute.NumericToNominal-R1,2,4,5,6,8-11,13-18,20-weka.filters.supervised.instance.StratifiedRemoveFolds-S0-V-N5-F1',3,10,weka.classifiers.trees.RandomForest,'-P 100 -I 100 -num-slots 1 -K 6 -M 1.0 -V 0.001 -S 1',1116839470751428698,20261008.1418,3186,353,299,54,0,84.70255,15.29745,0,0.694127,0.289721,0.356314,57.944333,71.263076,352.998591,207.472468,145.526123,0.999996,0.587741,0.412255,163.001889,0.461762,46.176357,0.80226,142,0.107955,19,0.892045,157,0.19774,35,0.881988,0.80226,0.840237,0.696995,0.904693,0.917131,0.847025,0.15272,0.84728,0.152975,0.849939,0.847025,0.84673,0.696995,0.904693,0.89975,0.846749,0.847025,0.283,0.008,0.266073,0.008321,266.073,8.321,9747823,862904,100827,99.716714,95.467422,?,-1
'data_all-weka.filters.unsupervised.attribute.Remove-R8,30-33-weka.filters.unsupervised.attribute.Remove-R27-28-weka.filters.unsupervised.attribute.NumericToNominal-R1,2,4,5,6,8-11,13-18,20-weka.filters.supervised.instance.StratifiedRemoveFolds-S0-V-N5-F1',4,1,weka.classifiers.trees.RandomForest,'-P 100 -I 100 -num-slots 1 -K 6 -M 1.0 -V 0.001 -S 1',1116839470751428698,20261008.1418,3185,354,288,66,0,81.355932,18.644068,0,0.627297,0.288499,0.365718,57.70004,73.143963,353.99751,214.217072,139.780438,0.999993,0.605133,0.39486,161.729608,0.456863,45.686651,0.769663,137,0.142045,25,0.857955,151,0.230337,41,0.845679,0.769663,0.805882,0.629873,0.892189,0.906958,0.813559,0.185942,0.814058,0.186441,0.816236,0.813559,0.813226,0.629873,0.892189,0.887603,0.813267,0.813559,0.263,0.011,0.262845,0.011617,262.845,11.617,9739655,862635,101096,99.435028,94.067797,?,-1
'data_all-weka.filters.unsupervised.attribute.Remove-R8,30-33-weka.filters.unsupervised.attribute.Remove-R27-28-weka.filters.unsupervised.attribute.NumericToNominal-R1,2,4,5,6,8-11,13-18,20-weka.filters.supervised.instance.StratifiedRemoveFolds-S0-V-N5-F1',4,2,weka.classifiers.trees.RandomForest,'-P 100 -I 100 -num-slots 1 -K 6 -M 1.0 -V 0.001 -S 1',1116839470751428698,20261008.1418,3185,354,297,57,0,83.898305,16.101695,0,0.678069,0.279658,0.349589,55.931804,69.918093,353.99751,199.478877,154.518633,0.999993,0.5635,0.436493,169.369133,0.478444,47.844724,0.808989,144,0.130682,23,0.869318,153,0.191011,34,0.862275,0.808989,0.834783,0.679381,0.912826,0.924537,0.838983,0.160676,0.839324,0.161017,0.840353,0.838983,0.838856,0.679381,0.912826,0.91216,0.838879,0.838983,0.277,0.009,0.264081,0.009318,264.081,9.318,9676171,862635,101096,100,95.056497,?,-1
'data_all-weka.filters.unsupervised.attribute.Remove-R8,30-33-weka.filters.unsupervised.attribute.Remove-R27-28-weka.filters.unsupervised.attribute.NumericToNominal-R1,2,4,5,6,8-11,13-18,20-weka.filters.supervised.instance.StratifiedRemoveFolds-S0-V-N5-F1',4,3,weka.classifiers.trees.RandomForest,'-P 100 -I 100 -num-slots 1 -K 6 -M 1.0 -V 0.001 -S 1',1116839470751428698,20261008.1418,3185,354,305,49,0,86.158192,13.841808,0,0.723164,0.285058,0.358491,57.011633,71.698179,354.000629,212.39945,141.601178,1.000002,0.599998,0.400003,166.395485,0.470044,47.004291,0.830508,147,0.107345,19,0.892655,158,0.169492,30,0.885542,0.830508,0.857143,0.724564,0.897443,0.913711,0.861582,0.138418,0.861582,0.138418,0.862984,0.861582,0.861448,0.724564,0.897443,0.885171,0.861448,0.861582,0.285,0.008,0.268289,0.008157,268.289,8.157,9748544,862635,101096,99.717514,95.621469,?,-1
'data_all-weka.filters.unsupervised.attribute.Remove-R8,30-33-weka.filters.unsupervised.attribute.Remove-R27-28-weka.filters.unsupervised.attribute.NumericToNominal-R1,2,4,5,6,8-11,13-18,20-weka.filters.supervised.instance.StratifiedRemoveFolds-S0-V-N5-F1',4,4,weka.classifiers.trees.RandomForest,'-P 100 -I 100 -num-slots 1 -K 6 -M 1.0 -V 0.001 -S 1',1116839470751428698,20261008.1418,3185,354,296,58,0,83.615819,16.384181,0,0.672316,0.285487,0.359182,57.097408,71.836248,354.000629,209.930894,144.069735,1.000002,0.593025,0.406977,165.22247,0.46673,46.672931,0.785311,139,0.112994,20,0.887006,157,0.214689,38,0.874214,0.785311,0.827381,0.67582,0.900396,0.909059,0.836158,0.163842,0.836158,0.163842,0.839671,0.836158,0.835733,0.67582,0.900396,0.894718,0.835733,0.836158,0.268,0.013,0.268021,0.012001,268.021,12.001,9724311,862635,101096,99.717514,95.480226,?,-1
'data_all-weka.filters.unsupervised.attribute.Remove-R8,30-33-weka.filters.unsupervised.attribute.Remove-R27-28-weka.filters.unsupervised.attribute.NumericToNominal-R1,2,4,5,6,8-11,13-18,20-weka.filters.supervised.instance.StratifiedRemoveFolds-S0-V-N5-F1',4,5,weka.classifiers.trees.RandomForest,'-P 100 -I 100 -num-slots 1 -K 6 -M 1.0 -V 0.001 -S 1',1116839470751428698,20261008.1418,3185,354,302,52,0,85.310734,14.689266,0,0.706215,0.270306,0.338156,54.061144,67.631029,354.000629,192.080913,161.919716,1.000002,0.542601,0.4574,177.488028,0.501379,50.137772,0.830508,147,0.124294,22,0.875706,155,0.169492,30,0.869822,0.830508,0.849711,0.706937,0.922053,0.935453,0.853107,0.146893,0.853107,0.146893,0.85383,0.853107,0.853032,0.706937,0.922053,0.917415,0.853032,0.853107,0.281,0.01,0.268495,0.009944,268.495,9.944,9987734,862635,101096,99.717514,95.903955,?,-1
'data_all-weka.filters.unsupervised.attribute.Remove-R8,30-33-weka.filters.unsupervised.attribute.Remove-R27-28-weka.filters.unsupervised.attribute.NumericToNominal-R1,2,4,5,6,8-11,13-18,20-weka.filters.supervised.instance.StratifiedRemoveFolds-S0-V-N5-F1',4,6,weka.classifiers.trees.RandomForest,'-P 100 -I 100 -num-slots 1 -K 6 -M 1.0 -V 0.001 -S 1',1116839470751428698,20261008.1418,3185,354,298,56,0,84.180791,15.819209,0,0.683616,0.283793,0.354045,56.758608,70.808842,354.000629,205.157816,148.842812,1.000002,0.579542,0.42046,166.741996,0.471023,47.102175,0.79096,140,0.107345,19,0.892655,158,0.20904,37,0.880503,0.79096,0.833333,0.687178,0.905774,0.922305,0.841808,0.158192,0.841808,0.158192,0.84538,0.841808,0.841398,0.687178,0.905774,0.899539,0.841398,0.841808,0.291,0.009,0.273551,0.008551,273.551,8.551,9741685,862635,101096,99.717514,94.491525,?,-1
'data_all-weka.filters.unsupervised.attribute.Remove-R8,30-33-weka.filters.unsupervised.attribute.Remove-R27-28-weka.filters.unsupervised.attribute.NumericToNominal-R1,2,4,5,6,8-11,13-18,20-weka.filters.supervised.instance.StratifiedRemoveFolds-S0-V-N5-F1',4,7,weka.classifiers.trees.RandomForest,'-P 100 -I 100 -num-slots 1 -K 6 -M 1.0 -V 0.001 -S 1',1116839470751428698,20261008.1418,3185,354,278,76,0,78.531073,21.468927,0,0.570621,0.301331,0.385079,60.26624,77.015693,354.000629,236.380547,117.620082,1.000002,0.667742,0.33226,151.592104,0.428226,42.822552,0.728814,129,0.158192,28,0.841808,149,0.271186,48,0.821656,0.728814,0.772455,0.574299,0.864854,0.88923,0.785311,0.214689,0.785311,0.214689,0.789001,0.785311,0.784623,0.574299,0.864862,0.856359,0.784623,0.785311,0.264,0.011,0.263802,0.011167,263.802,11.167,9590781,862635,101096,99.152542,93.644068,?,-1
'data_all-weka.filters.unsupervised.attribute.Remove-R8,30-33-weka.filters.unsupervised.attribute.Remove-R27-28-weka.filters.unsupervised.attribute.NumericToNominal-R1,2,4,5,6,8-11,13-18,20-weka.filters.supervised.instance.StratifiedRemoveFolds-S0-V-N5-F1',4,8,weka.classifiers.trees.RandomForest,'-P 100 -I 100 -num-slots 1 -K 6 -M 1.0 -V 0.001 -S 1',1116839470751428698,20261008.1418,3185,354,286,68,0,80.79096,19.20904,0,0.615819,0.289988,0.367903,57.997571,73.58054,354.000629,220.68063,133.319999,1.000002,0.623392,0.37661,161.22846,0.455448,45.544682,0.757062,134,0.141243,25,0.858757,152,0.242938,43,0.842767,0.757062,0.797619,0.619028,0.883686,0.905266,0.80791,0.19209,0.80791,0.19209,0.811127,0.80791,0.807412,0.619028,0.883686,0.87145,0.807412,0.80791,0.277,0.009,0.264123,0.009699,264.123,9.699,9701459,862635,101096,99.435028,93.926554,?,-1
'data_all-weka.filters.unsupervised.attribute.Remove-R8,30-33-weka.filters.unsupervised.attribute.Remove-R27-28-weka.filters.unsupervised.attribute.NumericToNominal-R1,2,4,5,6,8-11,13-18,20-weka.filters.supervised.instance.StratifiedRemoveFolds-S0-V-N5-F1',4,9,weka.classifiers.trees.RandomForest,'-P 100 -I 100 -num-slots 1 -K 6 -M 1.0 -V 0.001 -S 1',1116839470751428698,20261008.1418,3185,354,301,53,0,85.028249,14.971751,0,0.700565,0.269549,0.349469,53.909815,69.893745,354.000629,201.831411,152.169217,1.000002,0.570145,0.429857,176.685073,0.49911,49.910949,0.80226,142,0.101695,18,0.898305,159,0.19774,35,0.8875,0.80226,0.84273,0.703819,0.907466,0.91605,0.850282,0.149718,0.850282,0.149718,0.853544,0.850282,0.849936,0.703819,0.907466,0.901869,0.849936,0.850282,0.279,0.008,0.263102,0.007964,263.102,7.964,9625672,862635,101096,99.717514,93.502825,?,-1
'data_all-weka.filters.unsupervised.attribute.Remove-R8,30-33-weka.filters.unsupervised.attribute.Remove-R27-28-weka.filters.unsupervised.attribute.NumericToNominal-R1,2,4,5,6,8-11,13-18,20-weka.filters.supervised.instance.StratifiedRemoveFolds-S0-V-N5-F1',4,10,weka.classifiers.trees.RandomForest,'-P 100 -I 100 -num-slots 1 -K 6 -M 1.0 -V 0.001 -S 1',1116839470751428698,20261008.1418,3186,353,281,72,0,79.603399,20.396601,0,0.592078,0.294554,0.367861,58.910978,73.57244,352.998591,214.241793,138.756798,0.999996,0.606917,0.393079,157.002344,0.444766,44.476762,0.79096,140,0.198864,35,0.801136,141,0.20904,37,0.8,0.79096,0.795455,0.592116,0.892334,0.910461,0.796034,0.203937,0.796063,0.203966,0.796079,0.796034,0.796031,0.592116,0.892334,0.891513,0.796032,0.796034,0.265,0.011,0.264478,0.011174,264.478,11.174,9713935,862904,100827,100,95.609065,?,-1
'data_all-weka.filters.unsupervised.attribute.Remove-R8,30-33-weka.filters.unsupervised.attribute.Remove-R27-28-weka.filters.unsupervised.attribute.NumericToNominal-R1,2,4,5,6,8-11,13-18,20-weka.filters.supervised.instance.StratifiedRemoveFolds-S0-V-N5-F1',5,1,weka.classifiers.trees.RandomForest,'-P 100 -I 100 -num-slots 1 -K 6 -M 1.0 -V 0.001 -S 1',1116839470751428698,20261008.1418,3185,354,291,63,0,82.20339,17.79661,0,0.644159,0.304565,0.381792,60.913352,76.35872,353.99751,233.510088,120.487423,0.999993,0.659633,0.34036,151.279757,0.427344,42.734695,0.797753,142,0.153409,27,0.846591,149,0.202247,36,0.840237,0.797753,0.818444,0.644993,0.870292,0.875502,0.822034,0.17769,0.82231,0.177966,0.822919,0.822034,0.821944,0.644993,0.870292,0.860639,0.821964,0.822034,0.278,0.01,0.264253,0.009855,264.253,9.855,9656368,862635,101096,99.717514,95.338983,?,-1
'data_all-weka.filters.unsupervised.attribute.Remove-R8,30-33-weka.filters.unsupervised.attribute.Remove-R27-28-weka.filters.unsupervised.attribute.NumericToNominal-R1,2,4,5,6,8-11,13-18,20-weka.filters.supervised.instance.StratifiedRemoveFolds-S0-V-N5-F1',5,2,weka.classifiers.trees.RandomForest,'-P 100 -I 100 -num-slots 1 -K 6 -M 1.0 -V 0.001 -S 1',1116839470751428698,20261008.1418,3185,354,298,56,0,84.180791,15.819209,0,0.683828,0.289328,0.355361,57.866007,71.072499,353.99751,206.386172,147.611338,0.999993,0.583012,0.416981,163.401366,0.461586,46.158903,0.780899,139,0.096591,17,0.903409,159,0.219101,39,0.891026,0.780899,0.832335,0.689165,0.907399,0.919352,0.841808,0.1575,0.8425,0.158192,0.847277,0.841808,0.841251,0.689165,0.907399,0.906257,0.841301,0.841808,0.279,0.008,0.264419,0.008117,264.419,8.117,9808653,862635,101096,100,95.762712,?,-1
'data_all-weka.filters.unsupervised.attribute.Remove-R8,30-33-weka.filters.unsupervised.attribute.Remove-R27-28-weka.filters.unsupervised.attribute.NumericToNominal-R1,2,4,5,6,8-11,13-18,20-weka.filters.supervised.instance.StratifiedRemoveFolds-S0-V-N5-F1',5,3,weka.classifiers.trees.RandomForest,'-P 100 -I 100 -num-slots 1 -K 6 -M 1.0 -V 0.001 -S 1',1116839470751428698,20261008.1418,3185,354,286,68,0,80.79096,19.20904,0,0.615819,0.292934,0.365642,58.586755,73.128313,354.000629,213.63921,140.361419,1.000002,0.603501,0.396501,158.945766,0.448999,44.899854,0.762712,135,0.146893,26,0.853107,151,0.237288,42,0.838509,0.762712,0.798817,0.618351,0.893613,0.905694,0.80791,0.19209,0.80791,0.19209,0.810446,0.80791,0.807516,0.618351,0.893613,0.893776,0.807516,0.80791,0.276,0.011,0.274923,0.011425,274.923,11.425,9621739,862635,101096,100,95.480226,?,-1
'data_all-weka.filters.unsupervised.attribute.Remove-R8,30-33-weka.filters.unsupervised.attribute.Remove-R27-28-weka.filters.unsupervised.attribute.NumericToNominal-R1,2,4,5,6,8-11,13-18,20-weka.filters.supervised.instance.StratifiedRemoveFolds-S0-V-N5-F1',5,4,weka.classifiers.trees.RandomForest,'-P 100 -I 100 -num-slots 1 -K 6 -M 1.0 -V 0.001 -S 1',1116839470751428698,20261008.1418,3185,354,296,58,0,83.615819,16.384181,0,0.672316,0.277153,0.360528,55.430601,72.105587,354.000629,1282.101375,-928.100747,1.000002,3.621755,-2.621754,170.575232,0.481851,48.185008,0.813559,144,0.141243,25,0.858757,152,0.186441,33,0.852071,0.813559,0.83237,0.673004,0.890644,0.911505,0.836158,0.163842,0.836158,0.163842,0.836846,0.836158,0.836074,0.673004,0.890644,0.873756,0.836074,0.836158,0.279,0.01,0.265601,0.009871,265.601,9.871,9758396,862635,101096,99.435028,94.20904,?,-1
'data_all-weka.filters.unsupervised.attribute.Remove-R8,30-33-weka.filters.unsupervised.attribute.Remove-R27-28-weka.filters.unsupervised.attribute.NumericToNominal-R1,2,4,5,6,8-11,13-18,20-weka.filters.supervised.instance.StratifiedRemoveFolds-S0-V-N5-F1',5,5,weka.classifiers.trees.RandomForest,'-P 100 -I 100 -num-slots 1 -K 6 -M 1.0 -V 0.001 -S 1',1116839470751428698,20261008.1418,3185,354,295,59,0,83.333333,16.666667,0,0.666667,0.275859,0.351504,55.171875,70.300699,354.000629,204.137257,149.863371,1.000002,0.576659,0.423343,172.305246,0.486738,48.673712,0.757062,134,0.090395,16,0.909605,161,0.242938,43,0.893333,0.757062,0.819572,0.674561,0.903125,0.925374,0.833333,0.166667,0.833333,0.166667,0.841275,0.833333,0.832358,0.674561,0.903125,0.895462,0.832358,0.833333,0.28,0.008,0.26392,0.008016,263.92,8.016,9866327,862635,101096,99.435028,94.491525,?,-1
'data_all-weka.filters.unsupervised.attribute.Remove-R8,30-33-weka.filters.unsupervised.attribute.Remove-R27-28-weka.filters.unsupervised.attribute.NumericToNominal-R1,2,4,5,6,8-11,13-18,20-weka.filters.supervised.instance.StratifiedRemoveFolds-S0-V-N5-F1',5,6,weka.classifiers.trees.RandomForest,'-P 100 -I 100 -num-slots 1 -K 6 -M 1.0 -V 0.001 -S 1',1116839470751428698,20261008.1418,3185,354,291,63,0,82.20339,17.79661,0,0.644068,0.285004,0.363542,57.000863,72.708278,354.000629,213.181091,140.819538,1.000002,0.602206,0.397795,164.956788,0.46598,46.59788,0.80791,143,0.163842,29,0.836158,148,0.19209,34,0.831395,0.80791,0.819484,0.644325,0.889176,0.913248,0.822034,0.177966,0.822034,0.177966,0.822291,0.822034,0.821998,0.644325,0.889176,0.884162,0.821998,0.822034,0.267,0.011,0.266017,0.010958,266.017,10.958,9705597,862635,101096,99.717514,93.926554,?,-1
'data_all-weka.filters.unsupervised.attribute.Remove-R8,30-33-weka.filters.unsupervised.attribute.Remove-R27-28-weka.filters.unsupervised.attribute.NumericToNominal-R1,2,4,5,6,8-11,13-18,20-weka.filters.supervised.instance.StratifiedRemoveFolds-S0-V-N5-F1',5,7,weka.classifiers.trees.RandomForest,'-P 100 -I 100 -num-slots 1 -K 6 -M 1.0 -V 0.001 -S 1',1116839470751428698,20261008.1418,3185,354,289,65,0,81.638418,18.361582,0,0.632768,0.289902,0.364261,57.980348,72.852032,354.000629,212.008352,141.992277,1.000002,0.598894,0.401108,161.532716,0.456307,45.63063,0.740113,131,0.107345,19,0.892655,158,0.259887,46,0.873333,0.740113,0.801223,0.640261,0.889974,0.913037,0.816384,0.183616,0.816384,0.183616,0.823922,0.816384,0.81531,0.640261,0.889974,0.893412,0.81531,0.816384,0.275,0.011,0.263128,0.010966,263.128,10.966,9845887,862635,101096,100,95.338983,?,-1
'data_all-weka.filters.unsupervised.attribute.Remove-R8,30-33-weka.filters.unsupervised.attribute.Remove-R27-28-weka.filters.unsupervised.attribute.NumericToNominal-R1,2,4,5,6,8-11,13-18,20-weka.filters.supervised.instance.StratifiedRemoveFolds-S0-V-N5-F1',5,8,weka.classifiers.trees.RandomForest,'-P 100 -I 100 -num-slots 1 -K 6 -M 1.0 -V 0.001 -S 1',1116839470751428698,20261008.1418,3185,354,286,68,0,80.79096,19.20904,0,0.615819,0.289345,0.36386,57.869085,72.771839,354.000629,212.069665,141.930964,1.000002,0.599067,0.400935,161.472779,0.456138,45.613698,0.819209,145,0.20339,36,0.79661,141,0.180791,32,0.801105,0.819209,0.810056,0.615977,0.895464,0.909022,0.80791,0.19209,0.80791,0.19209,0.808067,0.80791,0.807885,0.615977,0.895464,0.894584,0.807885,0.80791,0.291,0.008,0.27355,0.008012,273.55,8.012,9740730,862635,101096,100,95.19774,?,-1
'data_all-weka.filters.unsupervised.attribute.Remove-R8,30-33-weka.filters.unsupervised.attribute.Remove-R27-28-weka.filters.unsupervised.attribute.NumericToNominal-R1,2,4,5,6,8-11,13-18,20-weka.filters.supervised.instance.StratifiedRemoveFolds-S0-V-N5-F1',5,9,weka.classifiers.trees.RandomForest,'-P 100 -I 100 -num-slots 1 -K 6 -M 1.0 -V 0.001 -S 1',1116839470751428698,20261008.1418,3185,354,276,78,0,77.966102,22.033898,0,0.559322,0.308734,0.38431,61.746731,76.861996,354.000629,232.935497,121.065132,1.000002,0.65801,0.341992,146.5372,0.413947,41.394616,0.734463,130,0.175141,31,0.824859,146,0.265537,47,0.807453,0.734463,0.769231,0.561621,0.866019,0.888438,0.779661,0.220339,0.779661,0.220339,0.781965,0.779661,0.77921,0.561621,0.866019,0.858208,0.77921,0.779661,0.27,0.012,0.270024,0.011524,270.024,11.524,9605450,862635,101096,99.717514,94.774011,?,-1
'data_all-weka.filters.unsupervised.attribute.Remove-R8,30-33-weka.filters.unsupervised.attribute.Remove-R27-28-weka.filters.unsupervised.attribute.NumericToNominal-R1,2,4,5,6,8-11,13-18,20-weka.filters.supervised.instance.StratifiedRemoveFolds-S0-V-N5-F1',5,10,weka.classifiers.trees.RandomForest,'-P 100 -I 100 -num-slots 1 -K 6 -M 1.0 -V 0.001 -S 1',1116839470751428698,20261008.1418,3186,353,302,51,0,85.552408,14.447592,0,0.711106,0.264615,0.342732,52.923251,68.546687,352.998591,192.340763,160.657828,0.999996,0.544875,0.455121,179.542644,0.508619,50.862142,0.819209,145,0.107955,19,0.892045,157,0.180791,32,0.884146,0.819209,0.85044,0.713042,0.915639,0.925744,0.855524,0.14427,0.85573,0.144476,0.857493,0.855524,0.855343,0.713042,0.915639,0.915677,0.855357,0.855524,0.278,0.009,0.26562,0.009277,265.62,9.277,9800102,862904,100827,100,94.334278,?,-1
'data_all-weka.filters.unsupervised.attribute.Remove-R8,30-33-weka.filters.unsupervised.attribute.Remove-R27-28-weka.filters.unsupervised.attribute.NumericToNominal-R1,2,4,5,6,8-11,13-18,20-weka.filters.supervised.instance.StratifiedRemoveFolds-S0-V-N5-F1',6,1,weka.classifiers.trees.RandomForest,'-P 100 -I 100 -num-slots 1 -K 6 -M 1.0 -V 0.001 -S 1',1116839470751428698,20261008.1418,3185,354,295,59,0,83.333333,16.666667,0,0.666667,0.278328,0.349688,55.665568,69.937418,354.000629,201.610485,152.390143,1.000002,0.569521,0.430481,171.025704,0.483123,48.31226,0.80226,142,0.135593,24,0.864407,153,0.19774,35,0.855422,0.80226,0.827988,0.667958,0.909317,0.923774,0.833333,0.166667,0.833333,0.166667,0.834626,0.833333,0.833172,0.667958,0.909317,0.903033,0.833172,0.833333,0.277,0.008,0.261176,0.008051,261.176,8.051,9626642,862635,101096,99.717514,94.632768,?,-1
'data_all-weka.filters.unsupervised.attribute.Remove-R8,30-33-weka.filters.unsupervised.attribute.Remove-R27-28-weka.filters.unsupervised.attribute.NumericToNominal-R1,2,4,5,6,8-11,13-18,20-weka.filters.supervised.instance.StratifiedRemoveFolds-S0-V-N5-F1',6,2,weka.classifiers.trees.RandomForest,'-P 100 -I 100 -num-slots 1 -K 6 -M 1.0 -V 0.001 -S 1',1116839470751428698,20261008.1418,3185,354,292,62,0,82.485876,17.514124,0,0.649718,0.283371,0.358055,56.674217,71.610826,354.000629,208.158483,145.842145,1.000002,0.588018,0.411983,166.199875,0.469491,46.949034,0.768362,136,0.118644,21,0.881356,156,0.231638,41,0.866242,0.768362,0.814371,0.653905,0.89971,0.910301,0.824859,0.175141,0.824859,0.175141,0.82906,0.824859,0.824298,0.653905,0.89971,0.896354,0.824298,0.824859,0.266,0.012,0.266016,0.01135,266.016,11.35,9735753,862635,101096,99.717514,94.067797,?,-1
'data_all-weka.filters.unsupervised.attribute.Remove-R8,30-33-weka.filters.unsupervised.attribute.Remove-R27-28-weka.filters.unsupervised.attribute.NumericToNominal-R1,2,4,5,6,8-11,13-18,20-weka.filters.supervised.instance.StratifiedRemoveFolds-S0-V-N5-F1',6,3,weka.classifiers.trees.RandomForest,'-P 100 -I 100 -num-slots 1 -K 6 -M 1.0 -V 0.001 -S 1',1116839470751428698,20261008.1418,3185,354,298,56,0,84.180791,15.819209,0,0.683616,0.282715,0.361356,56.542965,72.27115,354.000629,2352.880475,-1998.879847,1.000002,6.646555,-5.646553,167.387312,0.472846,47.284467,0.836158,148,0.152542,27,0.847458,150,0.163842,29,0.845714,0.836158,0.840909,0.683659,0.892592,0.911284,0.841808,0.158192,0.841808,0.158192,0.841852,0.841808,0.841803,0.683659,0.892592,0.873209,0.841803,0.841808,0.285,0.009,0.272486,0.009581,272.486,9.581,9904161,862635,101096,99.152542,93.785311,?,-1
'data_all-weka.filters.unsupervised.attribute.Remove-R8,30-33-weka.filters.unsupervised.attribute.Remove-R27-28-weka.filters.unsupervised.attribute.NumericToNominal-R1,2,4,5,6,8-11,13-18,20-weka.filters.supervised.instance.StratifiedRemoveFolds-S0-V-N5-F1',6,4,weka.classifiers.trees.RandomForest,'-P 100 -I 100 -num-slots 1 -K 6 -M 1.0 -V 0.001 -S 1',1116839470751428698,20261008.1418,3185,354,275,79,0,77.683616,22.316384,0,0.553672,0.305793,0.391857,61.15856,78.371389,354.000629,242.278173,111.722455,1.000002,0.684402,0.3156,147.81416,0.417554,41.755338,0.728814,129,0.175141,31,0.824859,146,0.271186,48,0.80625,0.728814,0.765579,0.556244,0.851288,0.877608,0.776836,0.223164,0.776836,0.223164,0.779414,0.776836,0.77632,0.556244,0.851288,0.841837,0.77632,0.776836,0.279,0.008,0.263357,0.00822,263.357,8.22,9600294,862635,101096,99.435028,94.20904,?,-1
'data_all-weka.filters.unsupervised.attribute.Remove-R8,30-33-weka.filters.unsupervised.attribute.Remove-R27-28-weka.filters.unsupervised.attribute.NumericToNominal-R1,2,4,5,6,8-11,13-18,20-weka.filters.supervised.instance.StratifiedRemoveFolds-S0-V-N5-F1',6,5,weka.classifiers.trees.RandomForest,'-P 100 -I 100 -num-slots 1 -K 6 -M 1.0 -V 0.001 -S 1',1116839470751428698,20261008.1418,3185,354,293,61,0,82.768362,17.231638,0,0.655367,0.27763,0.348996,55.525909,69.799062,354.000629,197.209842,156.790786,1.000002,0.55709,0.442912,170.343025,0.481195,48.119413,0.79661,141,0.141243,25,0.858757,152,0.20339,36,0.849398,0.79661,0.822157,0.656637,0.916754,0.919942,0.827684,0.172316,0.827684,0.172316,0.828954,0.827684,0.827517,0.656637,0.916754,0.919635,0.827517,0.827684,0.265,0.011,0.264943,0.011137,264.943,11.137,9693209,862635,101096,100,94.20904,?,-1
'data_all-weka.filters.unsupervised.attribute.Remove-R8,30-33-weka.filters.unsupervised.attribute.Remove-R27-28-weka.filters.unsupervised.attribute.NumericToNominal-R1,2,4,5,6,8-11,13-18,20-weka.filters.supervised.instance.StratifiedRemoveFolds-S0-V-N5-F1',6,6,weka.classifiers.trees.RandomForest,'-P 100 -I 100 -num-slots 1 -K 6 -M 1.0 -V 0.001 -S 1',1116839470751428698,20261008.1418,3185,354,295,59,0,83.333333,16.666667,0,0.666667,0.2776,0.35458,55.5199,70.915832,354.000629,207.469526,146.531102,1.000002,0.586072,0.41393,170.691988,0.482181,48.21799,0.80226,142,0.135593,24,0.864407,153,0.19774,35,0.855422,0.80226,0.827988,0.667958,0.898959,0.910103,0.833333,0.166667,0.833333,0.166667,0.834626,0.833333,0.833172,0.667958,0.898959,0.887623,0.833172,0.833333,0.281,0.01,0.268853,0.00975,268.853,9.75,9939031,862635,101096,99.435028,95.338983,?,-1
'data_all-weka.filters.unsupervised.attribute.Remove-R8,30-33-weka.filters.unsupervised.attribute.Remove-R27-28-weka.filters.unsupervised.attribute.NumericToNominal-R1,2,4,5,6,8-11,13-18,20-weka.filters.supervised.instance.StratifiedRemoveFolds-S0-V-N5-F1',6,7,weka.classifiers.trees.RandomForest,'-P 100 -I 100 -num-slots 1 -K 6 -M 1.0 -V 0.001 -S 1',1116839470751428698,20261008.1418,3185,354,300,54,0,84.745763,15.254237,0,0.694915,0.290472,0.355158,58.094417,71.031492,354.000629,205.610559,148.390069,1.000002,0.580821,0.419181,162.558466,0.459205,45.920389,0.80226,142,0.107345,19,0.892655,158,0.19774,35,0.881988,0.80226,0.840237,0.697772,0.912749,0.917286,0.847458,0.152542,0.847458,0.152542,0.85032,0.847458,0.847145,0.697772,0.912749,0.914349,0.847145,0.847458,0.279,0.008,0.263795,0.008428,263.795,8.428,9683127,862635,101096,100,97.033898,?,-1
'data_all-weka.filters.unsupervised.attribute.Remove-R8,30-33-weka.filters.unsupervised.attribute.Remove-R27-28-weka.filters.unsupervised.attribute.NumericToNominal-R1,2,4,5,6,8-11,13-18,20-weka.filters.supervised.instance.StratifiedRemoveFolds-S0-V-N5-F1',6,8,weka.classifiers.trees.RandomForest,'-P 100 -I 100 -num-slots 1 -K 6 -M 1.0 -V 0.001 -S 1',1116839470751428698,20261008.1418,3185,354,284,70,0,80.225989,19.774011,0,0.604532,0.28946,0.36971,57.892318,73.942267,353.99751,217.006827,136.990683,0.999993,0.613014,0.386979,160.988194,0.454769,45.477211,0.797753,142,0.193182,34,0.806818,142,0.202247,36,0.806818,0.797753,0.80226,0.604571,0.884688,0.902664,0.80226,0.197689,0.802311,0.19774,0.802311,0.80226,0.80226,0.604571,0.884688,0.883892,0.80226,0.80226,0.262,0.011,0.262073,0.010954,262.073,10.954,9706431,862635,101096,99.717514,94.350282,?,-1
'data_all-weka.filters.unsupervised.attribute.Remove-R8,30-33-weka.filters.unsupervised.attribute.Remove-R27-28-weka.filters.unsupervised.attribute.NumericToNominal-R1,2,4,5,6,8-11,13-18,20-weka.filters.supervised.instance.StratifiedRemoveFolds-S0-V-N5-F1',6,9,weka.classifiers.trees.RandomForest,'-P 100 -I 100 -num-slots 1 -K 6 -M 1.0 -V 0.001 -S 1',1116839470751428698,20261008.1418,3185,354,283,71,0,79.943503,20.056497,0,0.599126,0.299694,0.381079,59.939058,76.216255,353.99751,232.871966,121.125545,0.999993,0.65783,0.342163,154.000075,0.435028,43.503152,0.741573,132,0.142045,25,0.857955,151,0.258427,46,0.840764,0.741573,0.78806,0.603382,0.86552,0.896158,0.799435,0.199907,0.800093,0.200565,0.803841,0.799435,0.798795,0.603382,0.86552,0.85717,0.798856,0.799435,0.277,0.01,0.265033,0.009827,265.033,9.827,9565377,862635,101096,99.435028,94.915254,?,-1
'data_all-weka.filters.unsupervised.attribute.Remove-R8,30-33-weka.filters.unsupervised.attribute.Remove-R27-28-weka.filters.unsupervised.attribute.NumericToNominal-R1,2,4,5,6,8-11,13-18,20-weka.filters.supervised.instance.StratifiedRemoveFolds-S0-V-N5-F1',6,10,weka.classifiers.trees.RandomForest,'-P 100 -I 100 -num-slots 1 -K 6 -M 1.0 -V 0.001 -S 1',1116839470751428698,20261008.1418,3186,353,283,70,0,80.169972,19.830028,0,0.603498,0.281204,0.354804,56.241044,70.960917,352.998591,203.313466,149.685125,0.999996,0.575959,0.424037,167.090468,0.473344,47.334599,0.757062,134,0.153409,27,0.846591,149,0.242938,43,0.832298,0.757062,0.792899,0.605992,0.905464,0.918829,0.8017,0.198047,0.801953,0.1983,0.80425,0.8017,0.801317,0.605992,0.905464,0.904432,0.801341,0.8017,0.285,0.008,0.268173,0.008215,268.173,8.215,9669108,862904,100827,100,94.759207,?,-1
'data_all-weka.filters.unsupervised.attribute.Remove-R8,30-33-weka.filters.unsupervised.attribute.Remove-R27-28-weka.filters.unsupervised.attribute.NumericToNominal-R1,2,4,5,6,8-11,13-18,20-weka.filters.supervised.instance.StratifiedRemoveFolds-S0-V-N5-F1',7,1,weka.classifiers.trees.RandomForest,'-P 100 -I 100 -num-slots 1 -K 6 -M 1.0 -V 0.001 -S 1',1116839470751428698,20261008.1418,3185,354,289,65,0,81.638418,18.361582,0,0.632768,0.296139,0.371768,59.227832,74.35357,354.000629,219.984579,134.016049,1.000002,0.621425,0.378576,157.083052,0.443737,44.373665,0.774011,137,0.141243,25,0.858757,152,0.225989,40,0.845679,0.774011,0.80826,0.635053,0.884867,0.891793,0.816384,0.183616,0.816384,0.183616,0.818673,0.816384,0.816054,0.635053,0.884867,0.884402,0.816054,0.816384,0.264,0.011,0.263688,0.011061,263.688,11.061,9649568,862635,101096,100,94.915254,?,-1
'data_all-weka.filters.unsupervised.attribute.Remove-R8,30-33-weka.filters.unsupervised.attribute.Remove-R27-28-weka.filters.unsupervised.attribute.NumericToNominal-R1,2,4,5,6,8-11,13-18,20-weka.filters.supervised.instance.StratifiedRemoveFolds-S0-V-N5-F1',7,2,weka.classifiers.trees.RandomForest,'-P 100 -I 100 -num-slots 1 -K 6 -M 1.0 -V 0.001 -S 1',1116839470751428698,20261008.1418,3185,354,296,58,0,83.615819,16.384181,0,0.672316,0.27402,0.351934,54.804079,70.386744,354.000629,202.480691,151.519938,1.000002,0.571979,0.428022,173.133229,0.489077,48.907605,0.768362,136,0.096045,17,0.903955,160,0.231638,41,0.888889,0.768362,0.824242,0.678583,0.905455,0.921507,0.836158,0.163842,0.836158,0.163842,0.842454,0.836158,0.835402,0.678583,0.905455,0.903529,0.835402,0.836158,0.272,0.009,0.259338,0.009458,259.338,9.458,9693123,862635,101096,99.717514,93.926554,?,-1
'data_all-weka.filters.unsupervised.attribute.Remove-R8,30-33-weka.filters.unsupervised.attribute.Remove-R27-28-weka.filters.unsupervised.attribute.NumericToNominal-R1,2,4,5,6,8-11,13-18,20-weka.filters.supervised.instance.StratifiedRemoveFolds-S0-V-N5-F1',7,3,weka.classifiers.trees.RandomForest,'-P 100 -I 100 -num-slots 1 -K 6 -M 1.0 -V 0.001 -S 1',1116839470751428698,20261008.1418,3185,354,288,66,0,81.355932,18.644068,0,0.627119,0.31163,0.381031,62.325958,76.20613,354.000629,230.546986,123.453642,1.000002,0.651263,0.348739,146.126168,0.412786,41.278505,0.762712,135,0.135593,24,0.864407,153,0.237288,42,0.849057,0.762712,0.803571,0.630387,0.872259,0.895067,0.813559,0.186441,0.813559,0.186441,0.816836,0.813559,0.813076,0.630387,0.872259,0.867868,0.813076,0.813559,0.282,0.008,0.266913,0.007926,266.913,7.926,9648104,862635,101096,99.717514,95.903955,?,-1
'data_all-weka.filters.unsupervised.attribute.Remove-R8,30-33-weka.filters.unsupervised.attribute.Remove-R27-28-weka.filters.unsupervised.attribute.NumericToNominal-R1,2,4,5,6,8-11,13-18,20-weka.filters.supervised.instance.StratifiedRemoveFolds-S0-V-N5-F1',7,4,weka.classifiers.trees.RandomForest,'-P 100 -I 100 -num-slots 1 -K 6 -M 1.0 -V 0.001 -S 1',1116839470751428698,20261008.1418,3185,354,291,63,0,82.20339,17.79661,0,0.644068,0.285821,0.368724,57.164257,73.744704,354.000629,1288.665799,-934.66517,1.000002,3.640299,-2.640297,163.805362,0.462727,46.272619,0.819209,145,0.175141,31,0.824859,146,0.180791,32,0.823864,0.819209,0.82153,0.644078,0.883702,0.899565,0.822034,0.177966,0.822034,0.177966,0.822044,0.822034,0.822032,0.644078,0.883702,0.869602,0.822032,0.822034,0.265,0.011,0.265757,0.010896,265.757,10.896,9585657,862635,101096,99.435028,93.502825,?,-1
'data_all-weka.filters.unsupervised.attribute.Remove-R8,30-33-weka.filters.unsupervised.attribute.Remove-R27-28-weka.filters.unsupervised.attribute.NumericToNominal-R1,2,4,5,6,8-11,13-18,20-weka.filters.supervised.instance.StratifiedRemoveFolds-S0-V-N5-F1',7,5,weka.classifiers.trees.RandomForest,'-P 100 -I 100 -num-slots 1 -K 6 -M 1.0 -V 0.001 -S 1',1116839470751428698,20261008.1418,3185,354,292,62,0,82.485876,17.514124,0,0.649718,0.283263,0.36122,56.652567,72.243875,354.000629,207.800099,146.20053,1.000002,0.587006,0.412996,165.113729,0.466423,46.642213,0.79661,141,0.146893,26,0.853107,151,0.20339,36,0.844311,0.79661,0.819767,0.650757,0.89489,0.916349,0.824859,0.175141,0.824859,0.175141,0.825899,0.824859,0.824719,0.650757,0.89489,0.894241,0.824719,0.824859,0.278,0.01,0.266583,0.009547,266.583,9.547,9733354,862635,101096,99.717514,93.644068,?,-1
'data_all-weka.filters.unsupervised.attribute.Remove-R8,30-33-weka.filters.unsupervised.attribute.Remove-R27-28-weka.filters.unsupervised.attribute.NumericToNominal-R1,2,4,5,6,8-11,13-18,20-weka.filters.supervised.instance.StratifiedRemoveFolds-S0-V-N5-F1',7,6,weka.classifiers.trees.RandomForest,'-P 100 -I 100 -num-slots 1 -K 6 -M 1.0 -V 0.001 -S 1',1116839470751428698,20261008.1418,3185,354,291,63,0,82.20339,17.79661,0,0.644068,0.299974,0.375461,59.994892,75.092141,354.000629,229.433314,124.567314,1.000002,0.648117,0.351885,154.516816,0.436488,43.648741,0.779661,138,0.135593,24,0.864407,153,0.220339,39,0.851852,0.779661,0.814159,0.646393,0.877637,0.884522,0.822034,0.177966,0.822034,0.177966,0.824363,0.822034,0.821714,0.646393,0.877629,0.860288,0.821714,0.822034,0.28,0.008,0.265069,0.007952,265.069,7.952,9643675,862635,101096,99.152542,94.350282,?,-1
'data_all-weka.filters.unsupervised.attribute.Remove-R8,30-33-weka.filters.unsupervised.attribute.Remove-R27-28-weka.filters.unsupervised.attribute.NumericToNominal-R1,2,4,5,6,8-11,13-18,20-weka.filters.supervised.instance.StratifiedRemoveFolds-S0-V-N5-F1',7,7,weka.classifiers.trees.RandomForest,'-P 100 -I 100 -num-slots 1 -K 6 -M 1.0 -V 0.001 -S 1',1116839470751428698,20261008.1418,3185,354,296,58,0,83.615819,16.384181,0,0.672316,0.288699,0.362719,57.739892,72.543705,354.000629,215.157041,138.843588,1.000002,0.607788,0.392214,163.185646,0.460976,46.097558,0.819209,145,0.146893,26,0.853107,151,0.180791,32,0.847953,0.819209,0.833333,0.672703,0.893613,0.912621,0.836158,0.163842,0.836158,0.163842,0.836545,0.836158,0.836111,0.672703,0.893613,0.880107,0.836111,0.836158,0.265,0.012,0.264955,0.011051,264.955,11.051,9716004,862635,101096,99.435028,94.20904,?,-1
'data_all-weka.filters.unsupervised.attribute.Remove-R8,30-33-weka.filters.unsupervised.attribute.Remove-R27-28-weka.filters.unsupervised.attribute.NumericToNominal-R1,2,4,5,6,8-11,13-18,20-weka.filters.supervised.instance.StratifiedRemoveFolds-S0-V-N5-F1',7,8,weka.classifiers.trees.RandomForest,'-P 100 -I 100 -num-slots 1 -K 6 -M 1.0 -V 0.001 -S 1',1116839470751428698,20261008.1418,3185,354,297,57,0,83.898305,16.101695,0,0.678089,0.268704,0.335327,53.741061,67.065716,353.99751,188.060372,165.937138,0.999993,0.531244,0.468749,178.223166,0.503455,50.345881,0.803371,143,0.125,22,0.875,154,0.196629,35,0.866667,0.803371,0.833819,0.679924,0.931387,0.942348,0.838983,0.160612,0.839388,0.161017,0.840887,0.838983,0.838799,0.679924,0.931387,0.930733,0.838827,0.838983,0.279,0.01,0.266838,0.009651,266.838,9.651,9906031,862635,101096,100,95.338983,?,-1
'data_all-weka.filters.unsupervised.attribute.Remove-R8,30-33-weka.filters.unsupervised.attribute.Remove-R27-28-weka.filters.unsupervised.attribute.NumericToNominal-R1,2,4,5,6,8-11,13-18,20-weka.filters.supervised.instance.StratifiedRemoveFolds-S0-V-N5-F1',7,9,weka.classifiers.trees.RandomForest,'-P 100 -I 100 -num-slots 1 -K 6 -M 1.0 -V 0.001 -S 1',1116839470751428698,20261008.1418,3185,354,286,68,0,80.79096,19.20904,0,0.61593,0.283683,0.361438,56.736996,72.288005,353.99751,207.397174,146.600336,0.999993,0.585868,0.414125,164.629069,0.465054,46.505714,0.780899,139,0.164773,29,0.835227,147,0.219101,39,0.827381,0.780899,0.803468,0.616914,0.894918,0.911762,0.80791,0.191783,0.808217,0.19209,0.808956,0.80791,0.807787,0.616914,0.894918,0.89766,0.807811,0.80791,0.288,0.008,0.271951,0.007991,271.951,7.991,9819199,862635,101096,100,94.632768,?,-1
'data_all-weka.filters.unsupervised.attribute.Remove-R8,30-33-weka.filters.unsupervised.attribute.Remove-R27-28-weka.filters.unsupervised.attribute.NumericToNominal-R1,2,4,5,6,8-11,13-18,20-weka.filters.supervised.instance.StratifiedRemoveFolds-S0-V-N5-F1',7,10,weka.classifiers.trees.RandomForest,'-P 100 -I 100 -num-slots 1 -K 6 -M 1.0 -V 0.001 -S 1',1116839470751428698,20261008.1418,3186,353,288,65,0,81.586402,18.413598,0,0.631802,0.283269,0.358333,56.653945,71.666771,352.998591,208.508785,144.489806,0.999996,0.590676,0.40932,165.890496,0.469945,46.994663,0.779661,138,0.147727,26,0.852273,150,0.220339,39,0.841463,0.779661,0.809384,0.633522,0.897214,0.911553,0.815864,0.18393,0.81607,0.184136,0.817625,0.815864,0.815633,0.633522,0.897214,0.8913,0.815651,0.815864,0.264,0.011,0.263921,0.011146,263.921,11.146,9631941,862904,100827,99.716714,95.325779,?,-1
'data_all-weka.filters.unsupervised.attribute.Remove-R8,30-33-weka.filters.unsupervised.attribute.Remove-R27-28-weka.filters.unsupervised.attribute.NumericToNominal-R1,2,4,5,6,8-11,13-18,20-weka.filters.supervised.instance.StratifiedRemoveFolds-S0-V-N5-F1',8,1,weka.classifiers.trees.RandomForest,'-P 100 -I 100 -num-slots 1 -K 6 -M 1.0 -V 0.001 -S 1',1116839470751428698,20261008.1418,3185,354,298,56,0,84.180791,15.819209,0,0.683616,0.287852,0.359149,57.570476,71.829636,354.000629,212.268977,141.731652,1.000002,0.59963,0.400372,164.40141,0.464411,46.440994,0.841808,149,0.158192,28,0.841808,149,0.158192,28,0.841808,0.841808,0.841808,0.683616,0.897028,0.917224,0.841808,0.158192,0.841808,0.158192,0.841808,0.841808,0.841808,0.683616,0.897028,0.888231,0.841808,0.841808,0.282,0.01,0.269839,0.01004,269.839,10.04,9773309,862635,101096,99.717514,94.774011,?,-1
'data_all-weka.filters.unsupervised.attribute.Remove-R8,30-33-weka.filters.unsupervised.attribute.Remove-R27-28-weka.filters.unsupervised.attribute.NumericToNominal-R1,2,4,5,6,8-11,13-18,20-weka.filters.supervised.instance.StratifiedRemoveFolds-S0-V-N5-F1',8,2,weka.classifiers.trees.RandomForest,'-P 100 -I 100 -num-slots 1 -K 6 -M 1.0 -V 0.001 -S 1',1116839470751428698,20261008.1418,3185,354,293,61,0,82.768362,17.231638,0,0.655367,0.281899,0.354821,56.379782,70.964037,354.000629,204.693461,149.307167,1.000002,0.57823,0.421772,167.597433,0.473439,47.343824,0.774011,137,0.118644,21,0.881356,156,0.225989,40,0.867089,0.774011,0.81791,0.659176,0.903699,0.920058,0.827684,0.172316,0.827684,0.172316,0.831503,0.827684,0.827186,0.659176,0.903699,0.902025,0.827186,0.827684,0.284,0.008,0.268131,0.008,268.131,8,9736886,862635,101096,100,94.774011,?,-1
'data_all-weka.filters.unsupervised.attribute.Remove-R8,30-33-weka.filters.unsupervised.attribute.Remove-R27-28-weka.filters.unsupervised.attribute.NumericToNominal-R1,2,4,5,6,8-11,13-18,20-weka.filters.supervised.instance.StratifiedRemoveFolds-S0-V-N5-F1',8,3,weka.classifiers.trees.RandomForest,'-P 100 -I 100 -num-slots 1 -K 6 -M 1.0 -V 0.001 -S 1',1116839470751428698,20261008.1418,3185,354,292,62,0,82.485876,17.514124,0,0.649718,0.287244,0.362407,57.448799,72.481231,354.000629,217.575365,136.425264,1.000002,0.61462,0.385382,163.878434,0.462933,46.293261,0.757062,134,0.107345,19,0.892655,158,0.242938,43,0.875817,0.757062,0.812121,0.655774,0.892911,0.914184,0.824859,0.175141,0.824859,0.175141,0.830943,0.824859,0.82405,0.655774,0.892911,0.876805,0.82405,0.824859,0.267,0.011,0.266836,0.011285,266.836,11.285,9728425,862635,101096,98.870056,94.632768,?,-1
'data_all-weka.filters.unsupervised.attribute.Remove-R8,30-33-weka.filters.unsupervised.attribute.Remove-R27-28-weka.filters.unsupervised.attribute.NumericToNominal-R1,2,4,5,6,8-11,13-18,20-weka.filters.supervised.instance.StratifiedRemoveFolds-S0-V-N5-F1',8,4,weka.classifiers.trees.RandomForest,'-P 100 -I 100 -num-slots 1 -K 6 -M 1.0 -V 0.001 -S 1',1116839470751428698,20261008.1418,3185,354,298,56,0,84.180791,15.819209,0,0.683616,0.274367,0.352185,54.873304,70.436911,354.000629,203.068423,150.932206,1.000002,0.57364,0.426362,172.959557,0.488586,48.858545,0.841808,149,0.158192,28,0.841808,149,0.158192,28,0.841808,0.841808,0.841808,0.683616,0.907227,0.917834,0.841808,0.158192,0.841808,0.158192,0.841808,0.841808,0.841808,0.683616,0.907227,0.899888,0.841808,0.841808,0.277,0.009,0.264995,0.00953,264.995,9.53,9766747,862635,101096,99.717514,93.785311,?,-1
'data_all-weka.filters.unsupervised.attribute.Remove-R8,30-33-weka.filters.unsupervised.attribute.Remove-R27-28-weka.filters.unsupervised.attribute.NumericToNominal-R1,2,4,5,6,8-11,13-18,20-weka.filters.supervised.instance.StratifiedRemoveFolds-S0-V-N5-F1',8,5,weka.classifiers.trees.RandomForest,'-P 100 -I 100 -num-slots 1 -K 6 -M 1.0 -V 0.001 -S 1',1116839470751428698,20261008.1418,3185,354,287,67,0,81.073446,18.926554,0,0.621469,0.282679,0.362201,56.535736,72.440177,354.000629,209.871917,144.128711,1.000002,0.592859,0.407143,165.844874,0.468488,46.848751,0.740113,131,0.118644,21,0.881356,156,0.259887,46,0.861842,0.740113,0.796353,0.627762,0.893884,0.914533,0.810734,0.189266,0.810734,0.189266,0.81706,0.810734,0.809786,0.627762,0.893884,0.891164,0.809786,0.810734,0.282,0.008,0.266324,0.008001,266.324,8.001,9677299,862635,101096,100,93.926554,?,-1
'data_all-weka.filters.unsupervised.attribute.Remove-R8,30-33-weka.filters.unsupervised.attribute.Remove-R27-28-weka.filters.unsupervised.attribute.NumericToNominal-R1,2,4,5,6,8-11,13-18,20-weka.filters.supervised.instance.StratifiedRemoveFolds-S0-V-N5-F1',8,6,weka.classifiers.trees.RandomForest,'-P 100 -I 100 -num-slots 1 -K 6 -M 1.0 -V 0.001 -S 1',1116839470751428698,20261008.1418,3185,354,280,74,0,79.096045,20.903955,0,0.581921,0.294454,0.374319,58.890787,74.863642,354.000629,227.547814,126.452814,1.000002,0.64279,0.357211,157.805481,0.445778,44.57774,0.762712,135,0.180791,32,0.819209,145,0.237288,42,0.808383,0.762712,0.784884,0.582852,0.875993,0.888827,0.79096,0.20904,0.79096,0.20904,0.791892,0.79096,0.790794,0.582852,0.875993,0.86042,0.790794,0.79096,0.264,0.011,0.264587,0.011175,264.587,11.175,9664712,862635,101096,99.152542,93.785311,?,-1
'data_all-weka.filters.unsupervised.attribute.Remove-R8,30-33-weka.filters.unsupervised.attribute.Remove-R27-28-weka.filters.unsupervised.attribute.NumericToNominal-R1,2,4,5,6,8-11,13-18,20-weka.filters.supervised.instance.StratifiedRemoveFolds-S0-V-N5-F1',8,7,weka.classifiers.trees.RandomForest,'-P 100 -I 100 -num-slots 1 -K 6 -M 1.0 -V 0.001 -S 1',1116839470751428698,20261008.1418,3185,354,295,59,0,83.333333,16.666667,0,0.666667,0.271911,0.354592,54.382129,70.918377,354.000629,208.688374,145.312255,1.000002,0.589515,0.410487,174.958092,0.494232,49.423102,0.79096,140,0.124294,22,0.875706,155,0.20904,37,0.864198,0.79096,0.825959,0.669074,0.895448,0.914957,0.833333,0.166667,0.833333,0.166667,0.835745,0.833333,0.833034,0.669074,0.895448,0.88411,0.833034,0.833333,0.275,0.009,0.262388,0.00928,262.388,9.28,9747807,862635,101096,99.435028,94.067797,?,-1
'data_all-weka.filters.unsupervised.attribute.Remove-R8,30-33-weka.filters.unsupervised.attribute.Remove-R27-28-weka.filters.unsupervised.attribute.NumericToNominal-R1,2,4,5,6,8-11,13-18,20-weka.filters.supervised.instance.StratifiedRemoveFolds-S0-V-N5-F1',8,8,weka.classifiers.trees.RandomForest,'-P 100 -I 100 -num-slots 1 -K 6 -M 1.0 -V 0.001 -S 1',1116839470751428698,20261008.1418,3185,354,294,60,0,83.050847,16.949153,0,0.661158,0.288321,0.362467,57.664561,72.493834,353.99751,213.202193,140.795317,0.999993,0.602266,0.397727,163.001284,0.460456,46.045884,0.792135,141,0.130682,23,0.869318,153,0.207865,37,0.859756,0.792135,0.824561,0.663234,0.893402,0.907544,0.830508,0.169055,0.830945,0.169492,0.832664,0.830508,0.830281,0.663234,0.893402,0.884848,0.830313,0.830508,0.287,0.008,0.268656,0.008275,268.656,8.275,9691255,862635,101096,99.435028,94.915254,?,-1
'data_all-weka.filters.unsupervised.attribute.Remove-R8,30-33-weka.filters.unsupervised.attribute.Remove-R27-28-weka.filters.unsupervised.attribute.NumericToNominal-R1,2,4,5,6,8-11,13-18,20-weka.filters.supervised.instance.StratifiedRemoveFolds-S0-V-N5-F1',8,9,weka.classifiers.trees.RandomForest,'-P 100 -I 100 -num-slots 1 -K 6 -M 1.0 -V 0.001 -S 1',1116839470751428698,20261008.1418,3185,354,291,63,0,82.20339,17.79661,0,0.644272,0.285865,0.355311,57.173349,71.062534,353.99751,203.001915,150.995595,0.999993,0.573452,0.426541,164.474903,0.464618,46.462164,0.769663,137,0.125,22,0.875,154,0.230337,41,0.861635,0.769663,0.813056,0.648012,0.909139,0.920609,0.822034,0.177371,0.822629,0.177966,0.825892,0.822034,0.821574,0.648012,0.909147,0.912296,0.821623,0.822034,0.271,0.012,0.270585,0.012447,270.585,12.447,9768547,862635,101096,100,94.915254,?,-1
'data_all-weka.filters.unsupervised.attribute.Remove-R8,30-33-weka.filters.unsupervised.attribute.Remove-R27-28-weka.filters.unsupervised.attribute.NumericToNominal-R1,2,4,5,6,8-11,13-18,20-weka.filters.supervised.instance.StratifiedRemoveFolds-S0-V-N5-F1',8,10,weka.classifiers.trees.RandomForest,'-P 100 -I 100 -num-slots 1 -K 6 -M 1.0 -V 0.001 -S 1',1116839470751428698,20261008.1418,3186,353,274,79,0,77.620397,22.379603,0,0.552412,0.317433,0.389147,63.48684,77.829565,352.998591,235.826866,117.171724,0.999996,0.668065,0.331931,140.175448,0.397098,39.709917,0.774011,137,0.221591,39,0.778409,137,0.225989,40,0.778409,0.774011,0.776204,0.55242,0.86171,0.879888,0.776204,0.223784,0.776216,0.223796,0.776216,0.776204,0.776204,0.55242,0.86171,0.859362,0.776204,0.776204,0.284,0.01,0.270318,0.009845,270.318,9.845,9581663,862904,100827,100,94.759207,?,-1
'data_all-weka.filters.unsupervised.attribute.Remove-R8,30-33-weka.filters.unsupervised.attribute.Remove-R27-28-weka.filters.unsupervised.attribute.NumericToNominal-R1,2,4,5,6,8-11,13-18,20-weka.filters.supervised.instance.StratifiedRemoveFolds-S0-V-N5-F1',9,1,weka.classifiers.trees.RandomForest,'-P 100 -I 100 -num-slots 1 -K 6 -M 1.0 -V 0.001 -S 1',1116839470751428698,20261008.1418,3185,354,292,62,0,82.485876,17.514124,0,0.649718,0.282449,0.352515,56.489775,70.502944,354.000629,203.323861,150.676768,1.000002,0.574361,0.425641,167.397151,0.472873,47.287247,0.79661,141,0.146893,26,0.853107,151,0.20339,36,0.844311,0.79661,0.819767,0.650757,0.910371,0.921901,0.824859,0.175141,0.824859,0.175141,0.825899,0.824859,0.824719,0.650757,0.910371,0.907781,0.824719,0.824859,0.29,0.01,0.274871,0.009476,274.871,9.476,9805314,862635,101096,99.717514,95.338983,?,-1
'data_all-weka.filters.unsupervised.attribute.Remove-R8,30-33-weka.filters.unsupervised.attribute.Remove-R27-28-weka.filters.unsupervised.attribute.NumericToNominal-R1,2,4,5,6,8-11,13-18,20-weka.filters.supervised.instance.StratifiedRemoveFolds-S0-V-N5-F1',9,2,weka.classifiers.trees.RandomForest,'-P 100 -I 100 -num-slots 1 -K 6 -M 1.0 -V 0.001 -S 1',1116839470751428698,20261008.1418,3185,354,289,65,0,81.638418,18.361582,0,0.632768,0.294058,0.366522,58.81153,73.304222,354.000629,217.678016,136.322613,1.000002,0.61491,0.385092,158.942484,0.44899,44.898927,0.768362,136,0.135593,24,0.864407,153,0.231638,41,0.85,0.768362,0.807122,0.635707,0.889783,0.899569,0.816384,0.183616,0.816384,0.183616,0.81933,0.816384,0.81596,0.635707,0.889783,0.881731,0.81596,0.816384,0.272,0.011,0.271827,0.011243,271.827,11.243,9598257,862635,101096,99.435028,94.915254,?,-1
'data_all-weka.filters.unsupervised.attribute.Remove-R8,30-33-weka.filters.unsupervised.attribute.Remove-R27-28-weka.filters.unsupervised.attribute.NumericToNominal-R1,2,4,5,6,8-11,13-18,20-weka.filters.supervised.instance.StratifiedRemoveFolds-S0-V-N5-F1',9,3,weka.classifiers.trees.RandomForest,'-P 100 -I 100 -num-slots 1 -K 6 -M 1.0 -V 0.001 -S 1',1116839470751428698,20261008.1418,3185,354,299,55,0,84.463277,15.536723,0,0.689266,0.277767,0.349358,55.553363,69.871588,354.000629,204.397834,149.602795,1.000002,0.577395,0.422607,171.956604,0.485753,48.575226,0.79096,140,0.101695,18,0.898305,159,0.20904,37,0.886076,0.79096,0.835821,0.693271,0.909062,0.922454,0.844633,0.155367,0.844633,0.155367,0.84865,0.844633,0.844184,0.693271,0.909062,0.898742,0.844184,0.844633,0.563,0.011,0.305239,0.010255,305.239,10.255,9861204,862635,101096,99.717514,94.774011,?,-1
'data_all-weka.filters.unsupervised.attribute.Remove-R8,30-33-weka.filters.unsupervised.attribute.Remove-R27-28-weka.filters.unsupervised.attribute.NumericToNominal-R1,2,4,5,6,8-11,13-18,20-weka.filters.supervised.instance.StratifiedRemoveFolds-S0-V-N5-F1',9,4,weka.classifiers.trees.RandomForest,'-P 100 -I 100 -num-slots 1 -K 6 -M 1.0 -V 0.001 -S 1',1116839470751428698,20261008.1418,3185,354,283,71,0,79.943503,20.056497,0,0.59887,0.295438,0.3814,59.087532,76.280001,354.000629,228.861839,125.138789,1.000002,0.646502,0.353499,155.751076,0.439975,43.997401,0.774011,137,0.175141,31,0.824859,146,0.225989,40,0.815476,0.774011,0.794203,0.599646,0.87095,0.886672,0.799435,0.200565,0.799435,0.200565,0.800211,0.799435,0.799305,0.599646,0.87095,0.865257,0.799305,0.799435,0.335,0.008,0.296214,0.008753,296.214,8.753,9612577,862635,101096,99.435028,94.067797,?,-1
'data_all-weka.filters.unsupervised.attribute.Remove-R8,30-33-weka.filters.unsupervised.attribute.Remove-R27-28-weka.filters.unsupervised.attribute.NumericToNominal-R1,2,4,5,6,8-11,13-18,20-weka.filters.supervised.instance.StratifiedRemoveFolds-S0-V-N5-F1',9,5,weka.classifiers.trees.RandomForest,'-P 100 -I 100 -num-slots 1 -K 6 -M 1.0 -V 0.001 -S 1',1116839470751428698,20261008.1418,3185,354,301,53,0,85.028249,14.971751,0,0.700565,0.278656,0.34803,55.731129,69.605932,354.000629,199.112152,154.888476,1.000002,0.562464,0.437538,170.910141,0.482797,48.279615,0.858757,152,0.158192,28,0.841808,149,0.141243,25,0.844444,0.858757,0.851541,0.700666,0.91219,0.923925,0.850282,0.149718,0.850282,0.149718,0.850383,0.850282,0.850272,0.700666,0.91219,0.910718,0.850272,0.850282,0.274,0.011,0.27317,0.011527,273.17,11.527,9802980,862635,101096,100,95.056497,?,-1
'data_all-weka.filters.unsupervised.attribute.Remove-R8,30-33-weka.filters.unsupervised.attribute.Remove-R27-28-weka.filters.unsupervised.attribute.NumericToNominal-R1,2,4,5,6,8-11,13-18,20-weka.filters.supervised.instance.StratifiedRemoveFolds-S0-V-N5-F1',9,6,weka.classifiers.trees.RandomForest,'-P 100 -I 100 -num-slots 1 -K 6 -M 1.0 -V 0.001 -S 1',1116839470751428698,20261008.1418,3185,354,282,72,0,79.661017,20.338983,0,0.59322,0.302343,0.38417,60.468615,76.833917,354.000629,235.777112,118.223516,1.000002,0.666037,0.333965,151.450343,0.427826,42.782507,0.774011,137,0.180791,32,0.819209,145,0.225989,40,0.810651,0.774011,0.791908,0.593827,0.864774,0.882778,0.79661,0.20339,0.79661,0.20339,0.797217,0.79661,0.796506,0.593827,0.864774,0.854049,0.796506,0.79661,0.289,0.009,0.274944,0.009371,274.944,9.371,9717018,862635,101096,98.870056,94.067797,?,-1
'data_all-weka.filters.unsupervised.attribute.Remove-R8,30-33-weka.filters.unsupervised.attribute.Remove-R27-28-weka.filters.unsupervised.attribute.NumericToNominal-R1,2,4,5,6,8-11,13-18,20-weka.filters.supervised.instance.StratifiedRemoveFolds-S0-V-N5-F1',9,7,weka.classifiers.trees.RandomForest,'-P 100 -I 100 -num-slots 1 -K 6 -M 1.0 -V 0.001 -S 1',1116839470751428698,20261008.1418,3185,354,291,63,0,82.20339,17.79661,0,0.644068,0.287701,0.359069,57.540256,71.813616,354.000629,206.504744,147.495884,1.000002,0.583347,0.416655,162.775827,0.459819,45.98179,0.762712,135,0.118644,21,0.881356,156,0.237288,42,0.865385,0.762712,0.810811,0.648649,0.903316,0.913916,0.822034,0.177966,0.822034,0.177966,0.826632,0.822034,0.821405,0.648649,0.903316,0.906191,0.821405,0.822034,0.313,0.008,0.283197,0.008041,283.197,8.041,9796024,862635,101096,100,95.621469,?,-1
'data_all-weka.filters.unsupervised.attribute.Remove-R8,30-33-weka.filters.unsupervised.attribute.Remove-R27-28-weka.filters.unsupervised.attribute.NumericToNominal-R1,2,4,5,6,8-11,13-18,20-weka.filters.supervised.instance.StratifiedRemoveFolds-S0-V-N5-F1',9,8,weka.classifiers.trees.RandomForest,'-P 100 -I 100 -num-slots 1 -K 6 -M 1.0 -V 0.001 -S 1',1116839470751428698,20261008.1418,3185,354,298,56,0,84.180791,15.819209,0,0.683707,0.28338,0.356582,56.676259,71.316687,353.99751,205.692394,148.305116,0.999993,0.581052,0.418941,166.424167,0.470125,47.012807,0.814607,145,0.130682,23,0.869318,153,0.185393,33,0.863095,0.814607,0.83815,0.6848,0.90293,0.918748,0.841808,0.157883,0.842117,0.158192,0.842952,0.841808,0.841707,0.6848,0.90293,0.901929,0.841727,0.841808,0.265,0.011,0.264716,0.011201,264.716,11.201,9731255,862635,101096,100,94.632768,?,-1
'data_all-weka.filters.unsupervised.attribute.Remove-R8,30-33-weka.filters.unsupervised.attribute.Remove-R27-28-weka.filters.unsupervised.attribute.NumericToNominal-R1,2,4,5,6,8-11,13-18,20-weka.filters.supervised.instance.StratifiedRemoveFolds-S0-V-N5-F1',9,9,weka.classifiers.trees.RandomForest,'-P 100 -I 100 -num-slots 1 -K 6 -M 1.0 -V 0.001 -S 1',1116839470751428698,20261008.1418,3185,354,286,68,0,80.79096,19.20904,0,0.615979,0.297137,0.376279,59.427622,75.256183,353.99751,229.031058,124.966453,0.999993,0.64698,0.353013,156.030347,0.440764,44.076679,0.769663,137,0.153409,27,0.846591,149,0.230337,41,0.835366,0.769663,0.80117,0.617913,0.870547,0.899587,0.80791,0.191656,0.808344,0.19209,0.809933,0.80791,0.807652,0.617913,0.870563,0.856139,0.807689,0.80791,0.275,0.009,0.262463,0.009417,262.463,9.417,9602890,862635,101096,99.435028,94.915254,?,-1
'data_all-weka.filters.unsupervised.attribute.Remove-R8,30-33-weka.filters.unsupervised.attribute.Remove-R27-28-weka.filters.unsupervised.attribute.NumericToNominal-R1,2,4,5,6,8-11,13-18,20-weka.filters.supervised.instance.StratifiedRemoveFolds-S0-V-N5-F1',9,10,weka.classifiers.trees.RandomForest,'-P 100 -I 100 -num-slots 1 -K 6 -M 1.0 -V 0.001 -S 1',1116839470751428698,20261008.1418,3186,353,294,59,0,83.286119,16.713881,0,0.665822,0.27481,0.347956,54.962125,69.591461,352.998591,199.498814,153.499777,0.999996,0.565152,0.434844,172.484015,0.488623,48.862522,0.779661,138,0.113636,20,0.886364,156,0.220339,39,0.873418,0.779661,0.823881,0.669711,0.912237,0.924106,0.832861,0.166837,0.833163,0.167139,0.836813,0.832861,0.832401,0.669711,0.912237,0.90184,0.832425,0.832861,0.283,0.008,0.267313,0.007761,267.313,7.761,9763688,862904,100827,99.433428,94.617564,?,-1
'data_all-weka.filters.unsupervised.attribute.Remove-R8,30-33-weka.filters.unsupervised.attribute.Remove-R27-28-weka.filters.unsupervised.attribute.NumericToNominal-R1,2,4,5,6,8-11,13-18,20-weka.filters.supervised.instance.StratifiedRemoveFolds-S0-V-N5-F1',10,1,weka.classifiers.trees.RandomForest,'-P 100 -I 100 -num-slots 1 -K 6 -M 1.0 -V 0.001 -S 1',1116839470751428698,20261008.1418,3185,354,293,61,0,82.768362,17.231638,0,0.655367,0.279968,0.355238,55.993627,71.047437,354.000629,203.265814,150.734814,1.000002,0.574197,0.425805,168.295172,0.47541,47.540925,0.80791,143,0.152542,27,0.847458,150,0.19209,34,0.841176,0.80791,0.824207,0.65588,0.905423,0.91581,0.827684,0.172316,0.827684,0.172316,0.828197,0.827684,0.827616,0.65588,0.905423,0.906165,0.827616,0.827684,0.265,0.011,0.265047,0.011102,265.047,11.102,9734998,862635,101096,100,93.361582,?,-1
'data_all-weka.filters.unsupervised.attribute.Remove-R8,30-33-weka.filters.unsupervised.attribute.Remove-R27-28-weka.filters.unsupervised.attribute.NumericToNominal-R1,2,4,5,6,8-11,13-18,20-weka.filters.supervised.instance.StratifiedRemoveFolds-S0-V-N5-F1',10,2,weka.classifiers.trees.RandomForest,'-P 100 -I 100 -num-slots 1 -K 6 -M 1.0 -V 0.001 -S 1',1116839470751428698,20261008.1418,3185,354,289,65,0,81.638418,18.361582,0,0.632768,0.264759,0.345727,52.951854,69.145338,354.000629,192.748982,161.251647,1.000002,0.544489,0.455513,178.290268,0.503645,50.364393,0.79096,140,0.158192,28,0.841808,149,0.20904,37,0.833333,0.79096,0.811594,0.633588,0.913307,0.92703,0.816384,0.183616,0.816384,0.183616,0.817204,0.816384,0.816265,0.633588,0.913307,0.916257,0.816265,0.816384,0.278,0.01,0.266844,0.009497,266.844,9.497,9759740,862635,101096,100,93.644068,?,-1
'data_all-weka.filters.unsupervised.attribute.Remove-R8,30-33-weka.filters.unsupervised.attribute.Remove-R27-28-weka.filters.unsupervised.attribute.NumericToNominal-R1,2,4,5,6,8-11,13-18,20-weka.filters.supervised.instance.StratifiedRemoveFolds-S0-V-N5-F1',10,3,weka.classifiers.trees.RandomForest,'-P 100 -I 100 -num-slots 1 -K 6 -M 1.0 -V 0.001 -S 1',1116839470751428698,20261008.1418,3185,354,291,63,0,82.20339,17.79661,0,0.644068,0.2963,0.378443,59.259911,75.688567,354.000629,230.204927,123.795702,1.000002,0.650296,0.349705,156.54842,0.442227,44.222639,0.774011,137,0.129944,23,0.870056,154,0.225989,40,0.85625,0.774011,0.813056,0.647059,0.870631,0.891567,0.822034,0.177966,0.822034,0.177966,0.825032,0.822034,0.821623,0.647059,0.870631,0.85969,0.821623,0.822034,0.283,0.009,0.267051,0.009684,267.051,9.684,9641781,862635,101096,99.435028,94.067797,?,-1
'data_all-weka.filters.unsupervised.attribute.Remove-R8,30-33-weka.filters.unsupervised.attribute.Remove-R27-28-weka.filters.unsupervised.attribute.NumericToNominal-R1,2,4,5,6,8-11,13-18,20-weka.filters.supervised.instance.StratifiedRemoveFolds-S0-V-N5-F1',10,4,weka.classifiers.trees.RandomForest,'-P 100 -I 100 -num-slots 1 -K 6 -M 1.0 -V 0.001 -S 1',1116839470751428698,20261008.1418,3185,354,296,58,0,83.615819,16.384181,0,0.672316,0.286563,0.35894,57.312614,71.787824,354.000629,210.362083,143.638546,1.000002,0.594243,0.405759,164.953545,0.46597,46.596964,0.80791,143,0.135593,24,0.864407,153,0.19209,34,0.856287,0.80791,0.831395,0.673392,0.900571,0.90899,0.836158,0.163842,0.836158,0.163842,0.837235,0.836158,0.836027,0.673392,0.900579,0.895721,0.836027,0.836158,0.269,0.012,0.269421,0.011331,269.421,11.331,9715017,862635,101096,99.717514,95.056497,?,-1
'data_all-weka.filters.unsupervised.attribute.Remove-R8,30-33-weka.filters.unsupervised.attribute.Remove-R27-28-weka.filters.unsupervised.attribute.NumericToNominal-R1,2,4,5,6,8-11,13-18,20-weka.filters.supervised.instance.StratifiedRemoveFolds-S0-V-N5-F1',10,5,weka.classifiers.trees.RandomForest,'-P 100 -I 100 -num-slots 1 -K 6 -M 1.0 -V 0.001 -S 1',1116839470751428698,20261008.1418,3185,354,292,62,0,82.485876,17.514124,0,0.649718,0.288003,0.359651,57.600623,71.930143,354.000629,208.381996,145.618633,1.000002,0.58865,0.411352,162.906355,0.460187,46.018663,0.774011,137,0.124294,22,0.875706,155,0.225989,40,0.861635,0.774011,0.815476,0.653103,0.899853,0.917451,0.824859,0.175141,0.824859,0.175141,0.828254,0.824859,0.824405,0.653103,0.899853,0.90018,0.824405,0.824859,0.283,0.011,0.270978,0.010001,270.978,10.001,9757018,862635,101096,100,95.056497,?,-1
'data_all-weka.filters.unsupervised.attribute.Remove-R8,30-33-weka.filters.unsupervised.attribute.Remove-R27-28-weka.filters.unsupervised.attribute.NumericToNominal-R1,2,4,5,6,8-11,13-18,20-weka.filters.supervised.instance.StratifiedRemoveFolds-S0-V-N5-F1',10,6,weka.classifiers.trees.RandomForest,'-P 100 -I 100 -num-slots 1 -K 6 -M 1.0 -V 0.001 -S 1',1116839470751428698,20261008.1418,3185,354,292,62,0,82.485876,17.514124,0,0.649718,0.294515,0.370648,58.903045,74.129427,354.000629,220.535976,133.464653,1.000002,0.622983,0.377019,158.337797,0.447282,44.728112,0.768362,136,0.118644,21,0.881356,156,0.231638,41,0.866242,0.768362,0.814371,0.653905,0.881771,0.902338,0.824859,0.175141,0.824859,0.175141,0.82906,0.824859,0.824298,0.653905,0.881771,0.875515,0.824298,0.824859,0.285,0.01,0.269125,0.009693,269.125,9.693,9767698,862635,101096,99.717514,94.491525,?,-1
'data_all-weka.filters.unsupervised.attribute.Remove-R8,30-33-weka.filters.unsupervised.attribute.Remove-R27-28-weka.filters.unsupervised.attribute.NumericToNominal-R1,2,4,5,6,8-11,13-18,20-weka.filters.supervised.instance.StratifiedRemoveFolds-S0-V-N5-F1',10,7,weka.classifiers.trees.RandomForest,'-P 100 -I 100 -num-slots 1 -K 6 -M 1.0 -V 0.001 -S 1',1116839470751428698,20261008.1418,3185,354,293,61,0,82.768362,17.231638,0,0.655367,0.281271,0.353189,56.254179,70.637733,354.000629,204.099652,149.900977,1.000002,0.576553,0.423449,168.016677,0.474623,47.462254,0.830508,147,0.175141,31,0.824859,146,0.169492,30,0.825843,0.830508,0.828169,0.655378,0.909892,0.90841,0.827684,0.172316,0.827684,0.172316,0.827694,0.827684,0.827682,0.655378,0.909892,0.909472,0.827682,0.827684,0.279,0.011,0.278226,0.011199,278.226,11.199,9821789,862635,101096,99.717514,94.067797,?,-1
'data_all-weka.filters.unsupervised.attribute.Remove-R8,30-33-weka.filters.unsupervised.attribute.Remove-R27-28-weka.filters.unsupervised.attribute.NumericToNominal-R1,2,4,5,6,8-11,13-18,20-weka.filters.supervised.instance.StratifiedRemoveFolds-S0-V-N5-F1',10,8,weka.classifiers.trees.RandomForest,'-P 100 -I 100 -num-slots 1 -K 6 -M 1.0 -V 0.001 -S 1',1116839470751428698,20261008.1419,3185,354,274,80,0,77.40113,22.59887,0,0.548412,0.306144,0.387268,61.229169,77.453943,353.99751,233.780574,120.216936,0.999993,0.660397,0.339596,148.221246,0.418704,41.870703,0.696629,124,0.147727,26,0.852273,150,0.303371,54,0.826667,0.696629,0.756098,0.555393,0.862519,0.882956,0.774011,0.225109,0.774891,0.225989,0.781239,0.774011,0.772691,0.555393,0.862519,0.864351,0.772786,0.774011,0.285,0.01,0.270851,0.009808,270.851,9.808,9738404,862635,101096,100,96.045198,?,-1
'data_all-weka.filters.unsupervised.attribute.Remove-R8,30-33-weka.filters.unsupervised.attribute.Remove-R27-28-weka.filters.unsupervised.attribute.NumericToNominal-R1,2,4,5,6,8-11,13-18,20-weka.filters.supervised.instance.StratifiedRemoveFolds-S0-V-N5-F1',10,9,weka.classifiers.trees.RandomForest,'-P 100 -I 100 -num-slots 1 -K 6 -M 1.0 -V 0.001 -S 1',1116839470751428698,20261008.1419,3185,354,298,56,0,84.180791,15.819209,0,0.683686,0.273632,0.345058,54.726619,69.011873,353.99751,199.691048,154.306463,0.999993,0.564099,0.435894,174.552929,0.493087,49.309084,0.820225,146,0.136364,24,0.863636,152,0.179775,32,0.858824,0.820225,0.83908,0.684386,0.915331,0.928901,0.841808,0.157947,0.842053,0.158192,0.842548,0.841808,0.841747,0.684386,0.915331,0.901975,0.841762,0.841808,0.287,0.008,0.270872,0.008338,270.872,8.338,9910673,862635,101096,99.435028,96.045198,?,-1
'data_all-weka.filters.unsupervised.attribute.Remove-R8,30-33-weka.filters.unsupervised.attribute.Remove-R27-28-weka.filters.unsupervised.attribute.NumericToNominal-R1,2,4,5,6,8-11,13-18,20-weka.filters.supervised.instance.StratifiedRemoveFolds-S0-V-N5-F1',10,10,weka.classifiers.trees.RandomForest,'-P 100 -I 100 -num-slots 1 -K 6 -M 1.0 -V 0.001 -S 1',1116839470751428698,20261008.1419,3186,353,287,66,0,81.303116,18.696884,0,0.626143,0.301601,0.375878,60.320336,75.175827,352.998591,1298.650178,-945.651588,0.999996,3.678896,-2.6789,153.048721,0.433566,43.356751,0.774011,137,0.147727,26,0.852273,150,0.225989,40,0.840491,0.774011,0.805882,0.628122,0.87752,0.902641,0.813031,0.186747,0.813253,0.186969,0.815055,0.813031,0.812758,0.628122,0.87752,0.859869,0.812777,0.813031,0.269,0.012,0.268732,0.011854,268.732,11.854,9661531,862904,100827,99.150142,94.475921,?,-1
'data_all-weka.filters.unsupervised.attribute.Remove-R8,30-33-weka.filters.unsupervised.attribute.Remove-R27-28-weka.filters.unsupervised.attribute.NumericToNominal-R1,2,4,5,6,8-11,13-18,20-weka.filters.supervised.instance.StratifiedRemoveFolds-S0-V-N5-F1',1,1,weka.classifiers.functions.Logistic,'-R 3.0 -M -1 -num-decimal-places 4',3932117032546553727,20261008.1419,3185,354,288,66,0,81.355932,18.644068,0,0.627178,0.262053,0.370022,52.410914,74.004697,353.99751,224.275997,129.721513,0.999993,0.633548,0.366445,177.196099,0.500554,50.055747,0.797753,142,0.170455,30,0.829545,146,0.202247,36,0.825581,0.797753,0.811429,0.627539,0.885087,0.8949,0.813559,0.186261,0.813739,0.186441,0.813956,0.813559,0.813524,0.627539,0.885087,0.874712,0.813536,0.813559,0.418,0.001,0.417311,0.001869,417.311,1.869,23007,862635,101096,98.870056,88.135593,?,?
'data_all-weka.filters.unsupervised.attribute.Remove-R8,30-33-weka.filters.unsupervised.attribute.Remove-R27-28-weka.filters.unsupervised.attribute.NumericToNominal-R1,2,4,5,6,8-11,13-18,20-weka.filters.supervised.instance.StratifiedRemoveFolds-S0-V-N5-F1',1,2,weka.classifiers.functions.Logistic,'-R 3.0 -M -1 -num-decimal-places 4',3932117032546553727,20261008.1419,3185,354,287,67,0,81.073446,18.926554,0,0.621566,0.256117,0.3697,51.223585,73.940411,353.99751,218.713469,135.284041,0.999993,0.617835,0.382158,180.525301,0.509958,50.996206,0.786517,140,0.164773,29,0.835227,147,0.213483,38,0.828402,0.786517,0.806916,0.62237,0.884289,0.905434,0.810734,0.18899,0.81101,0.189266,0.811594,0.810734,0.810639,0.62237,0.884289,0.876486,0.81066,0.810734,0.302,0.001,0.287997,0.001716,287.997,1.716,23007,862635,101096,98.870056,85.310734,?,?
'data_all-weka.filters.unsupervised.attribute.Remove-R8,30-33-weka.filters.unsupervised.attribute.Remove-R27-28-weka.filters.unsupervised.attribute.NumericToNominal-R1,2,4,5,6,8-11,13-18,20-weka.filters.supervised.instance.StratifiedRemoveFolds-S0-V-N5-F1',1,3,weka.classifiers.functions.Logistic,'-R 3.0 -M -1 -num-decimal-places 4',3932117032546553727,20261008.1419,3185,354,286,68,0,80.79096,19.20904,0,0.615819,0.254048,0.3626,50.809527,72.519958,354.000629,204.575482,149.425147,1.000002,0.577897,0.422105,182.099245,0.514405,51.440373,0.79661,141,0.180791,32,0.819209,145,0.20339,36,0.815029,0.79661,0.805714,0.615977,0.897188,0.910405,0.80791,0.19209,0.80791,0.19209,0.808067,0.80791,0.807885,0.615977,0.897188,0.898094,0.807885,0.80791,0.269,0,0.268964,0.000314,268.964,0.314,23007,862635,101096,99.435028,86.158192,?,?
'data_all-weka.filters.unsupervised.attribute.Remove-R8,30-33-weka.filters.unsupervised.attribute.Remove-R27-28-weka.filters.unsupervised.attribute.NumericToNominal-R1,2,4,5,6,8-11,13-18,20-weka.filters.supervised.instance.StratifiedRemoveFolds-S0-V-N5-F1',1,4,weka.classifiers.functions.Logistic,'-R 3.0 -M -1 -num-decimal-places 4',3932117032546553727,20261008.1419,3185,354,292,62,0,82.485876,17.514124,0,0.649718,0.249756,0.359422,49.951261,71.88437,354.000629,206.614592,147.386037,1.000002,0.583657,0.416345,186.848928,0.527822,52.782089,0.728814,129,0.079096,14,0.920904,163,0.271186,48,0.902098,0.728814,0.80625,0.662047,0.888442,0.910826,0.824859,0.175141,0.824859,0.175141,0.837305,0.824859,0.823228,0.662047,0.888442,0.888047,0.823228,0.824859,0.263,0,0.262468,0.000298,262.468,0.298,23007,862635,101096,99.717514,87.429379,?,?
'data_all-weka.filters.unsupervised.attribute.Remove-R8,30-33-weka.filters.unsupervised.attribute.Remove-R27-28-weka.filters.unsupervised.attribute.NumericToNominal-R1,2,4,5,6,8-11,13-18,20-weka.filters.supervised.instance.StratifiedRemoveFolds-S0-V-N5-F1',1,5,weka.classifiers.functions.Logistic,'-R 3.0 -M -1 -num-decimal-places 4',3932117032546553727,20261008.1419,3185,354,296,58,0,83.615819,16.384181,0,0.672316,0.244122,0.348696,48.824437,69.73906,354.000629,196.090555,157.910073,1.000002,0.553928,0.446074,190.90821,0.539289,53.928777,0.80226,142,0.129944,23,0.870056,154,0.19774,35,0.860606,0.80226,0.830409,0.673867,0.905232,0.9172,0.836158,0.163842,0.836158,0.163842,0.83771,0.836158,0.83597,0.673867,0.905232,0.902886,0.83597,0.836158,0.282,0,0.282033,0.000258,282.033,0.258,23007,862635,101096,99.435028,86.723164,?,?
'data_all-weka.filters.unsupervised.attribute.Remove-R8,30-33-weka.filters.unsupervised.attribute.Remove-R27-28-weka.filters.unsupervised.attribute.NumericToNominal-R1,2,4,5,6,8-11,13-18,20-weka.filters.supervised.instance.StratifiedRemoveFolds-S0-V-N5-F1',1,6,weka.classifiers.functions.Logistic,'-R 3.0 -M -1 -num-decimal-places 4',3932117032546553727,20261008.1419,3185,354,297,57,0,83.898305,16.101695,0,0.677966,0.235287,0.336677,47.057371,67.335324,354.000629,179.943536,174.057093,1.000002,0.508315,0.491687,196.421237,0.554862,55.486127,0.774011,137,0.096045,17,0.903955,160,0.225989,40,0.88961,0.774011,0.827795,0.683763,0.913499,0.932099,0.838983,0.161017,0.838983,0.161017,0.844805,0.838983,0.8383,0.683763,0.913499,0.911886,0.8383,0.838983,0.264,0,0.263644,0.000412,263.644,0.412,23007,862635,101096,100,85.451977,?,?
'data_all-weka.filters.unsupervised.attribute.Remove-R8,30-33-weka.filters.unsupervised.attribute.Remove-R27-28-weka.filters.unsupervised.attribute.NumericToNominal-R1,2,4,5,6,8-11,13-18,20-weka.filters.supervised.instance.StratifiedRemoveFolds-S0-V-N5-F1',1,7,weka.classifiers.functions.Logistic,'-R 3.0 -M -1 -num-decimal-places 4',3932117032546553727,20261008.1419,3185,354,285,69,0,80.508475,19.491525,0,0.610169,0.267164,0.367187,53.432786,73.437241,354.000629,212.280661,141.719967,1.000002,0.599663,0.400339,174.208041,0.492113,49.211224,0.740113,131,0.129944,23,0.870056,154,0.259887,46,0.850649,0.740113,0.791541,0.615387,0.892113,0.900681,0.805085,0.194915,0.805085,0.194915,0.810325,0.805085,0.804258,0.615387,0.892113,0.893385,0.804258,0.805085,0.271,0,0.270563,0.000271,270.563,0.271,23007,862635,101096,99.717514,88.559322,?,?
'data_all-weka.filters.unsupervised.attribute.Remove-R8,30-33-weka.filters.unsupervised.attribute.Remove-R27-28-weka.filters.unsupervised.attribute.NumericToNominal-R1,2,4,5,6,8-11,13-18,20-weka.filters.supervised.instance.StratifiedRemoveFolds-S0-V-N5-F1',1,8,weka.classifiers.functions.Logistic,'-R 3.0 -M -1 -num-decimal-places 4',3932117032546553727,20261008.1419,3185,354,296,58,0,83.615819,16.384181,0,0.672316,0.24278,0.353057,48.556072,70.61122,354.000629,203.815226,150.185402,1.000002,0.575749,0.424253,191.921841,0.542152,54.215113,0.79096,140,0.118644,21,0.881356,156,0.20904,37,0.869565,0.79096,0.828402,0.67508,0.898816,0.913505,0.836158,0.163842,0.836158,0.163842,0.838928,0.836158,0.835823,0.67508,0.898816,0.891416,0.835823,0.836158,0.267,0.001,0.266887,0.000278,266.887,0.278,23007,862635,101096,99.435028,87.00565,?,?
'data_all-weka.filters.unsupervised.attribute.Remove-R8,30-33-weka.filters.unsupervised.attribute.Remove-R27-28-weka.filters.unsupervised.attribute.NumericToNominal-R1,2,4,5,6,8-11,13-18,20-weka.filters.supervised.instance.StratifiedRemoveFolds-S0-V-N5-F1',1,9,weka.classifiers.functions.Logistic,'-R 3.0 -M -1 -num-decimal-places 4',3932117032546553727,20261008.1419,3185,354,309,45,0,87.288136,12.711864,0,0.745763,0.227669,0.319089,45.533882,63.817666,354.000629,166.760709,187.23992,1.000002,0.471075,0.528926,204.183287,0.576789,57.678792,0.853107,151,0.107345,19,0.892655,158,0.146893,26,0.888235,0.853107,0.870317,0.746347,0.93364,0.945727,0.872881,0.127119,0.872881,0.127119,0.873465,0.872881,0.872832,0.746347,0.93364,0.933345,0.872832,0.872881,0.295,0,0.282833,0.000257,282.833,0.257,23007,862635,101096,100,86.158192,?,?
'data_all-weka.filters.unsupervised.attribute.Remove-R8,30-33-weka.filters.unsupervised.attribute.Remove-R27-28-weka.filters.unsupervised.attribute.NumericToNominal-R1,2,4,5,6,8-11,13-18,20-weka.filters.supervised.instance.StratifiedRemoveFolds-S0-V-N5-F1',1,10,weka.classifiers.functions.Logistic,'-R 3.0 -M -1 -num-decimal-places 4',3932117032546553727,20261008.1419,3186,353,297,56,0,84.135977,15.864023,0,0.68287,0.246369,0.348044,49.273894,69.608943,352.998591,201.101925,151.896665,0.999996,0.569694,0.430302,189.898164,0.537955,53.795729,0.757062,134,0.073864,13,0.926136,163,0.242938,43,0.911565,0.757062,0.82716,0.692943,0.895577,0.923104,0.84136,0.158161,0.841839,0.15864,0.851584,0.84136,0.840245,0.692943,0.895577,0.87682,0.840282,0.84136,0.27,0,0.268235,0.00027,268.235,0.27,23007,862904,100827,98.300283,87.535411,?,?
'data_all-weka.filters.unsupervised.attribute.Remove-R8,30-33-weka.filters.unsupervised.attribute.Remove-R27-28-weka.filters.unsupervised.attribute.NumericToNominal-R1,2,4,5,6,8-11,13-18,20-weka.filters.supervised.instance.StratifiedRemoveFolds-S0-V-N5-F1',2,1,weka.classifiers.functions.Logistic,'-R 3.0 -M -1 -num-decimal-places 4',3932117032546553727,20261008.1419,3185,354,282,72,0,79.661017,20.338983,0,0.59322,0.260942,0.370532,52.188485,74.106249,354.000629,218.939928,135.060701,1.000002,0.618474,0.381527,177.905514,0.502558,50.255706,0.734463,130,0.141243,25,0.858757,152,0.265537,47,0.83871,0.734463,0.783133,0.597856,0.876664,0.900111,0.79661,0.20339,0.79661,0.20339,0.801264,0.79661,0.795822,0.597856,0.876664,0.870259,0.795822,0.79661,0.263,0,0.263358,0.000311,263.358,0.311,23007,862635,101096,99.152542,87.853107,?,?
'data_all-weka.filters.unsupervised.attribute.Remove-R8,30-33-weka.filters.unsupervised.attribute.Remove-R27-28-weka.filters.unsupervised.attribute.NumericToNominal-R1,2,4,5,6,8-11,13-18,20-weka.filters.supervised.instance.StratifiedRemoveFolds-S0-V-N5-F1',2,2,weka.classifiers.functions.Logistic,'-R 3.0 -M -1 -num-decimal-places 4',3932117032546553727,20261008.1419,3185,354,289,65,0,81.638418,18.361582,0,0.632768,0.241935,0.354566,48.387023,70.913208,354.000629,201.445256,152.555373,1.000002,0.569054,0.430947,191.058791,0.539714,53.971314,0.779661,138,0.146893,26,0.853107,151,0.220339,39,0.841463,0.779661,0.809384,0.634482,0.899295,0.918018,0.816384,0.183616,0.816384,0.183616,0.8181,0.816384,0.816136,0.634482,0.899295,0.888721,0.816136,0.816384,0.266,0.001,0.266199,0.000364,266.199,0.364,23007,862635,101096,98.870056,85.451977,?,?
'data_all-weka.filters.unsupervised.attribute.Remove-R8,30-33-weka.filters.unsupervised.attribute.Remove-R27-28-weka.filters.unsupervised.attribute.NumericToNominal-R1,2,4,5,6,8-11,13-18,20-weka.filters.supervised.instance.StratifiedRemoveFolds-S0-V-N5-F1',2,3,weka.classifiers.functions.Logistic,'-R 3.0 -M -1 -num-decimal-places 4',3932117032546553727,20261008.1419,3185,354,295,59,0,83.333333,16.666667,0,0.666667,0.249547,0.349021,49.909329,69.804055,354.000629,201.508053,152.492576,1.000002,0.569232,0.43077,187.952213,0.530938,53.093751,0.768362,136,0.101695,18,0.898305,159,0.231638,41,0.883117,0.768362,0.821752,0.672367,0.902518,0.912749,0.833333,0.166667,0.833333,0.166667,0.839058,0.833333,0.832627,0.672367,0.902518,0.894172,0.832627,0.833333,0.262,0.001,0.262719,0.000463,262.719,0.463,23007,862635,101096,99.152542,87.853107,?,?
'data_all-weka.filters.unsupervised.attribute.Remove-R8,30-33-weka.filters.unsupervised.attribute.Remove-R27-28-weka.filters.unsupervised.attribute.NumericToNominal-R1,2,4,5,6,8-11,13-18,20-weka.filters.supervised.instance.StratifiedRemoveFolds-S0-V-N5-F1',2,4,weka.classifiers.functions.Logistic,'-R 3.0 -M -1 -num-decimal-places 4',3932117032546553727,20261008.1419,3185,354,295,59,0,83.333333,16.666667,0,0.666667,0.242982,0.340251,48.596435,68.050176,354.000629,185.616084,168.384545,1.000002,0.524339,0.475663,192.558177,0.54395,54.394869,0.79096,140,0.124294,22,0.875706,155,0.20904,37,0.864198,0.79096,0.825959,0.669074,0.914616,0.9295,0.833333,0.166667,0.833333,0.166667,0.835745,0.833333,0.833034,0.669074,0.914616,0.915777,0.833034,0.833333,0.256,0,0.256148,0.000346,256.148,0.346,23007,862635,101096,100,88.276836,?,?
'data_all-weka.filters.unsupervised.attribute.Remove-R8,30-33-weka.filters.unsupervised.attribute.Remove-R27-28-weka.filters.unsupervised.attribute.NumericToNominal-R1,2,4,5,6,8-11,13-18,20-weka.filters.supervised.instance.StratifiedRemoveFolds-S0-V-N5-F1',2,5,weka.classifiers.functions.Logistic,'-R 3.0 -M -1 -num-decimal-places 4',3932117032546553727,20261008.1419,3185,354,295,59,0,83.333333,16.666667,0,0.666667,0.235601,0.339678,47.120142,67.935487,354.000629,182.325182,171.675446,1.000002,0.515043,0.484959,196.279769,0.554463,55.446164,0.830508,147,0.163842,29,0.836158,148,0.169492,30,0.835227,0.830508,0.832861,0.666677,0.915414,0.929636,0.833333,0.166667,0.833333,0.166667,0.833344,0.833333,0.833332,0.666677,0.915414,0.916296,0.833332,0.833333,0.271,0,0.269103,0.000256,269.103,0.256,23007,862635,101096,99.717514,86.723164,?,?
'data_all-weka.filters.unsupervised.attribute.Remove-R8,30-33-weka.filters.unsupervised.attribute.Remove-R27-28-weka.filters.unsupervised.attribute.NumericToNominal-R1,2,4,5,6,8-11,13-18,20-weka.filters.supervised.instance.StratifiedRemoveFolds-S0-V-N5-F1',2,6,weka.classifiers.functions.Logistic,'-R 3.0 -M -1 -num-decimal-places 4',3932117032546553727,20261008.1419,3185,354,290,64,0,81.920904,18.079096,0,0.638418,0.253996,0.365067,50.799232,73.013243,354.000629,214.365801,139.634827,1.000002,0.605553,0.394449,183.078537,0.517171,51.717009,0.768362,136,0.129944,23,0.870056,154,0.231638,41,0.855346,0.768362,0.809524,0.641745,0.884197,0.905512,0.819209,0.180791,0.819209,0.180791,0.822545,0.819209,0.81874,0.641745,0.884197,0.877918,0.81874,0.819209,0.27,0,0.270414,0.000301,270.414,0.301,23007,862635,101096,99.435028,86.864407,?,?
'data_all-weka.filters.unsupervised.attribute.Remove-R8,30-33-weka.filters.unsupervised.attribute.Remove-R27-28-weka.filters.unsupervised.attribute.NumericToNominal-R1,2,4,5,6,8-11,13-18,20-weka.filters.supervised.instance.StratifiedRemoveFolds-S0-V-N5-F1',2,7,weka.classifiers.functions.Logistic,'-R 3.0 -M -1 -num-decimal-places 4',3932117032546553727,20261008.1419,3185,354,280,74,0,79.096045,20.903955,0,0.581921,0.25755,0.368263,51.510002,73.65246,354.000629,217.030133,136.970496,1.000002,0.613079,0.386922,179.459477,0.506948,50.694677,0.745763,132,0.163842,29,0.836158,148,0.254237,45,0.819876,0.745763,0.781065,0.584313,0.889527,0.904703,0.79096,0.20904,0.79096,0.20904,0.793358,0.79096,0.790533,0.584313,0.889527,0.88049,0.790533,0.79096,0.266,0,0.265289,0.000255,265.289,0.255,23007,862635,101096,98.870056,86.440678,?,?
'data_all-weka.filters.unsupervised.attribute.Remove-R8,30-33-weka.filters.unsupervised.attribute.Remove-R27-28-weka.filters.unsupervised.attribute.NumericToNominal-R1,2,4,5,6,8-11,13-18,20-weka.filters.supervised.instance.StratifiedRemoveFolds-S0-V-N5-F1',2,8,weka.classifiers.functions.Logistic,'-R 3.0 -M -1 -num-decimal-places 4',3932117032546553727,20261008.1419,3185,354,305,49,0,86.158192,13.841808,0,0.723235,0.228725,0.321551,45.745187,64.310565,353.99751,169.033766,184.963744,0.999993,0.477497,0.522496,203.240116,0.574125,57.412866,0.837079,149,0.113636,20,0.886364,156,0.162921,29,0.881657,0.837079,0.85879,0.724171,0.928243,0.942484,0.861582,0.13814,0.86186,0.138418,0.862559,0.861582,0.861512,0.724171,0.928243,0.927049,0.861528,0.861582,0.27,0.001,0.2706,0.000335,270.6,0.335,23007,862635,101096,100,85.59322,?,?
'data_all-weka.filters.unsupervised.attribute.Remove-R8,30-33-weka.filters.unsupervised.attribute.Remove-R27-28-weka.filters.unsupervised.attribute.NumericToNominal-R1,2,4,5,6,8-11,13-18,20-weka.filters.supervised.instance.StratifiedRemoveFolds-S0-V-N5-F1',2,9,weka.classifiers.functions.Logistic,'-R 3.0 -M -1 -num-decimal-places 4',3932117032546553727,20261008.1419,3185,354,295,59,0,83.333333,16.666667,0,0.666816,0.254517,0.356718,50.903643,71.343894,353.99751,203.184089,150.813421,0.999993,0.573966,0.426027,183.492542,0.518341,51.834416,0.792135,141,0.125,22,0.875,154,0.207865,37,0.865031,0.792135,0.826979,0.669221,0.898589,0.912962,0.833333,0.166199,0.833801,0.166667,0.835823,0.833333,0.833074,0.669221,0.898589,0.896834,0.833108,0.833333,0.259,0,0.259292,0.000327,259.292,0.327,23007,862635,101096,99.435028,87.570621,?,?
'data_all-weka.filters.unsupervised.attribute.Remove-R8,30-33-weka.filters.unsupervised.attribute.Remove-R27-28-weka.filters.unsupervised.attribute.NumericToNominal-R1,2,4,5,6,8-11,13-18,20-weka.filters.supervised.instance.StratifiedRemoveFolds-S0-V-N5-F1',2,10,weka.classifiers.functions.Logistic,'-R 3.0 -M -1 -num-decimal-places 4',3932117032546553727,20261008.1419,3186,353,282,71,0,79.886686,20.113314,0,0.597814,0.265671,0.372153,53.134408,74.430714,352.998591,218.203159,134.795432,0.999996,0.618139,0.381857,173.63572,0.491886,49.188786,0.762712,135,0.164773,29,0.835227,147,0.237288,42,0.823171,0.762712,0.791789,0.599442,0.880136,0.898339,0.798867,0.200928,0.799072,0.201133,0.800539,0.798867,0.798615,0.599442,0.880136,0.876367,0.798634,0.798867,0.269,0.001,0.267855,0.000232,267.855,0.232,23007,862904,100827,99.716714,87.252125,?,?
'data_all-weka.filters.unsupervised.attribute.Remove-R8,30-33-weka.filters.unsupervised.attribute.Remove-R27-28-weka.filters.unsupervised.attribute.NumericToNominal-R1,2,4,5,6,8-11,13-18,20-weka.filters.supervised.instance.StratifiedRemoveFolds-S0-V-N5-F1',3,1,weka.classifiers.functions.Logistic,'-R 3.0 -M -1 -num-decimal-places 4',3932117032546553727,20261008.1419,3185,354,290,64,0,81.920904,18.079096,0,0.638418,0.24904,0.363087,49.807933,72.617255,354.000629,208.916074,145.084554,1.000002,0.590158,0.409843,185.76096,0.524748,52.474754,0.79096,140,0.152542,27,0.847458,150,0.20904,37,0.838323,0.79096,0.813953,0.639439,0.887357,0.911376,0.819209,0.180791,0.819209,0.180791,0.820231,0.819209,0.819065,0.639439,0.887357,0.881112,0.819065,0.819209,0.274,0,0.272284,0.000252,272.284,0.252,23007,862635,101096,99.717514,84.60452,?,?
'data_all-weka.filters.unsupervised.attribute.Remove-R8,30-33-weka.filters.unsupervised.attribute.Remove-R27-28-weka.filters.unsupervised.attribute.NumericToNominal-R1,2,4,5,6,8-11,13-18,20-weka.filters.supervised.instance.StratifiedRemoveFolds-S0-V-N5-F1',3,2,weka.classifiers.functions.Logistic,'-R 3.0 -M -1 -num-decimal-places 4',3932117032546553727,20261008.1419,3185,354,302,52,0,85.310734,14.689266,0,0.706215,0.227801,0.329181,45.560212,65.836157,354.000629,178.817164,175.183465,1.000002,0.505133,0.494869,203.599561,0.57514,57.513898,0.80791,143,0.101695,18,0.898305,159,0.19209,34,0.888199,0.80791,0.846154,0.709118,0.924255,0.932612,0.853107,0.146893,0.853107,0.146893,0.856016,0.853107,0.852807,0.709118,0.924255,0.924117,0.852807,0.853107,0.282,0,0.282298,0.000246,282.298,0.246,23007,862635,101096,99.717514,86.723164,?,?
'data_all-weka.filters.unsupervised.attribute.Remove-R8,30-33-weka.filters.unsupervised.attribute.Remove-R27-28-weka.filters.unsupervised.attribute.NumericToNominal-R1,2,4,5,6,8-11,13-18,20-weka.filters.supervised.instance.StratifiedRemoveFolds-S0-V-N5-F1',3,3,weka.classifiers.functions.Logistic,'-R 3.0 -M -1 -num-decimal-places 4',3932117032546553727,20261008.1419,3185,354,289,65,0,81.638418,18.361582,0,0.632768,0.255333,0.365418,51.066689,73.083434,354.000629,212.829577,141.171051,1.000002,0.601213,0.398788,182.126279,0.514481,51.44801,0.80226,142,0.169492,30,0.830508,147,0.19774,35,0.825581,0.80226,0.813754,0.633021,0.889208,0.906706,0.816384,0.183616,0.816384,0.183616,0.816637,0.816384,0.816348,0.633021,0.889208,0.882456,0.816348,0.816384,0.254,0,0.253649,0.00027,253.649,0.27,23007,862635,101096,98.870056,86.016949,?,?
'data_all-weka.filters.unsupervised.attribute.Remove-R8,30-33-weka.filters.unsupervised.attribute.Remove-R27-28-weka.filters.unsupervised.attribute.NumericToNominal-R1,2,4,5,6,8-11,13-18,20-weka.filters.supervised.instance.StratifiedRemoveFolds-S0-V-N5-F1',3,4,weka.classifiers.functions.Logistic,'-R 3.0 -M -1 -num-decimal-places 4',3932117032546553727,20261008.1419,3185,354,286,68,0,80.79096,19.20904,0,0.615819,0.251094,0.360225,50.218721,72.044879,354.000629,206.674081,147.326547,1.000002,0.583825,0.416177,184.237044,0.520444,52.04427,0.79661,141,0.180791,32,0.819209,145,0.20339,36,0.815029,0.79661,0.805714,0.615977,0.893038,0.913685,0.80791,0.19209,0.80791,0.19209,0.808067,0.80791,0.807885,0.615977,0.893038,0.888401,0.807885,0.80791,0.269,0,0.268759,0.000255,268.759,0.255,23007,862635,101096,99.435028,85.734463,?,?
'data_all-weka.filters.unsupervised.attribute.Remove-R8,30-33-weka.filters.unsupervised.attribute.Remove-R27-28-weka.filters.unsupervised.attribute.NumericToNominal-R1,2,4,5,6,8-11,13-18,20-weka.filters.supervised.instance.StratifiedRemoveFolds-S0-V-N5-F1',3,5,weka.classifiers.functions.Logistic,'-R 3.0 -M -1 -num-decimal-places 4',3932117032546553727,20261008.1419,3185,354,293,61,0,82.768362,17.231638,0,0.655367,0.254636,0.358129,50.927121,71.625754,354.000629,205.466926,148.533702,1.000002,0.580415,0.419587,183.628719,0.518725,51.872427,0.79661,141,0.141243,25,0.858757,152,0.20339,36,0.849398,0.79661,0.822157,0.656637,0.891889,0.911643,0.827684,0.172316,0.827684,0.172316,0.828954,0.827684,0.827517,0.656637,0.891889,0.884366,0.827517,0.827684,0.27,0,0.268495,0.000232,268.495,0.232,23007,862635,101096,99.435028,88.135593,?,?
'data_all-weka.filters.unsupervised.attribute.Remove-R8,30-33-weka.filters.unsupervised.attribute.Remove-R27-28-weka.filters.unsupervised.attribute.NumericToNominal-R1,2,4,5,6,8-11,13-18,20-weka.filters.supervised.instance.StratifiedRemoveFolds-S0-V-N5-F1',3,6,weka.classifiers.functions.Logistic,'-R 3.0 -M -1 -num-decimal-places 4',3932117032546553727,20261008.1419,3185,354,289,65,0,81.638418,18.361582,0,0.632768,0.260961,0.365962,52.192232,73.192355,354.000629,212.019644,141.980984,1.000002,0.598926,0.401076,177.78082,0.502206,50.220481,0.768362,136,0.135593,24,0.864407,153,0.231638,41,0.85,0.768362,0.807122,0.635707,0.883878,0.906738,0.816384,0.183616,0.816384,0.183616,0.81933,0.816384,0.81596,0.635707,0.883878,0.873769,0.81596,0.816384,0.256,0,0.256221,0.00025,256.221,0.25,23007,862635,101096,99.152542,86.864407,?,?
'data_all-weka.filters.unsupervised.attribute.Remove-R8,30-33-weka.filters.unsupervised.attribute.Remove-R27-28-weka.filters.unsupervised.attribute.NumericToNominal-R1,2,4,5,6,8-11,13-18,20-weka.filters.supervised.instance.StratifiedRemoveFolds-S0-V-N5-F1',3,7,weka.classifiers.functions.Logistic,'-R 3.0 -M -1 -num-decimal-places 4',3932117032546553727,20261008.1419,3185,354,302,52,0,85.310734,14.689266,0,0.706215,0.234769,0.331738,46.953872,66.347421,354.000629,182.11447,171.886159,1.000002,0.514448,0.485554,198.626431,0.561092,56.109062,0.819209,145,0.112994,20,0.887006,157,0.180791,32,0.878788,0.819209,0.847953,0.707843,0.920712,0.929786,0.853107,0.146893,0.853107,0.146893,0.854738,0.853107,0.852938,0.707843,0.920712,0.918734,0.852938,0.853107,0.264,0.001,0.264085,0.000247,264.085,0.247,23007,862635,101096,99.717514,87.00565,?,?
'data_all-weka.filters.unsupervised.attribute.Remove-R8,30-33-weka.filters.unsupervised.attribute.Remove-R27-28-weka.filters.unsupervised.attribute.NumericToNominal-R1,2,4,5,6,8-11,13-18,20-weka.filters.supervised.instance.StratifiedRemoveFolds-S0-V-N5-F1',3,8,weka.classifiers.functions.Logistic,'-R 3.0 -M -1 -num-decimal-places 4',3932117032546553727,20261008.1419,3185,354,290,64,0,81.920904,18.079096,0,0.638614,0.242377,0.349964,48.47556,69.993209,353.99751,200.912377,153.085134,0.999993,0.567549,0.432444,191.828669,0.541889,54.189271,0.769663,137,0.130682,23,0.869318,153,0.230337,41,0.85625,0.769663,0.810651,0.641939,0.903154,0.913918,0.819209,0.180228,0.819772,0.180791,0.822646,0.819209,0.818793,0.641939,0.903154,0.898477,0.818839,0.819209,0.264,0.001,0.264093,0.000246,264.093,0.246,23007,862635,101096,98.305085,87.288136,?,?
'data_all-weka.filters.unsupervised.attribute.Remove-R8,30-33-weka.filters.unsupervised.attribute.Remove-R27-28-weka.filters.unsupervised.attribute.NumericToNominal-R1,2,4,5,6,8-11,13-18,20-weka.filters.supervised.instance.StratifiedRemoveFolds-S0-V-N5-F1',3,9,weka.classifiers.functions.Logistic,'-R 3.0 -M -1 -num-decimal-places 4',3932117032546553727,20261008.1419,3185,354,294,60,0,83.050847,16.949153,0,0.661309,0.268678,0.366432,53.735878,73.286755,353.99751,217.937315,136.060195,0.999993,0.615642,0.384351,174.266675,0.492279,49.22822,0.752809,134,0.090909,16,0.909091,160,0.247191,44,0.893333,0.752809,0.817073,0.669727,0.888598,0.900368,0.830508,0.168609,0.831391,0.169492,0.839131,0.830508,0.829519,0.669727,0.888598,0.880877,0.829589,0.830508,0.277,0.001,0.27609,0.000248,276.09,0.248,23007,862635,101096,99.152542,89.830508,?,?
'data_all-weka.filters.unsupervised.attribute.Remove-R8,30-33-weka.filters.unsupervised.attribute.Remove-R27-28-weka.filters.unsupervised.attribute.NumericToNominal-R1,2,4,5,6,8-11,13-18,20-weka.filters.supervised.instance.StratifiedRemoveFolds-S0-V-N5-F1',3,10,weka.classifiers.functions.Logistic,'-R 3.0 -M -1 -num-decimal-places 4',3932117032546553727,20261008.1419,3186,353,299,54,0,84.70255,15.29745,0,0.694176,0.245652,0.342727,49.130491,68.54569,352.998591,186.194458,166.804133,0.999996,0.527463,0.472533,189.66667,0.537299,53.730149,0.774011,137,0.079545,14,0.920455,162,0.225989,40,0.907285,0.774011,0.835366,0.701826,0.914388,0.927706,0.847025,0.15256,0.84744,0.152975,0.854782,0.847025,0.846224,0.701826,0.914388,0.916514,0.846254,0.847025,0.269,0,0.266774,0.000235,266.774,0.235,23007,862904,100827,100,88.385269,?,?
'data_all-weka.filters.unsupervised.attribute.Remove-R8,30-33-weka.filters.unsupervised.attribute.Remove-R27-28-weka.filters.unsupervised.attribute.NumericToNominal-R1,2,4,5,6,8-11,13-18,20-weka.filters.supervised.instance.StratifiedRemoveFolds-S0-V-N5-F1',4,1,weka.classifiers.functions.Logistic,'-R 3.0 -M -1 -num-decimal-places 4',3932117032546553727,20261008.1419,3185,354,282,72,0,79.661017,20.338983,0,0.593467,0.263192,0.372019,52.638757,74.404084,353.99751,226.162604,127.834907,0.999993,0.638877,0.361116,176.098462,0.497453,49.745678,0.741573,132,0.147727,26,0.852273,150,0.258427,46,0.835443,0.741573,0.785714,0.597287,0.881671,0.897114,0.79661,0.202764,0.797236,0.20339,0.800573,0.79661,0.796024,0.597287,0.881671,0.869759,0.796083,0.79661,0.271,0,0.269146,0.000275,269.146,0.275,23007,862635,101096,98.587571,87.288136,?,?
'data_all-weka.filters.unsupervised.attribute.Remove-R8,30-33-weka.filters.unsupervised.attribute.Remove-R27-28-weka.filters.unsupervised.attribute.NumericToNominal-R1,2,4,5,6,8-11,13-18,20-weka.filters.supervised.instance.StratifiedRemoveFolds-S0-V-N5-F1',4,2,weka.classifiers.functions.Logistic,'-R 3.0 -M -1 -num-decimal-places 4',3932117032546553727,20261008.1419,3185,354,296,58,0,83.615819,16.384181,0,0.67239,0.239418,0.338991,47.883803,67.798491,353.99751,186.877828,167.119682,0.999993,0.527903,0.472089,194.983258,0.5508,55.080404,0.814607,145,0.142045,25,0.857955,151,0.185393,33,0.852941,0.814607,0.833333,0.673077,0.912379,0.925498,0.836158,0.163597,0.836403,0.163842,0.836888,0.836158,0.836095,0.673077,0.912379,0.912198,0.836111,0.836158,0.256,0,0.255859,0.000244,255.859,0.244,23007,862635,101096,99.717514,87.429379,?,?
'data_all-weka.filters.unsupervised.attribute.Remove-R8,30-33-weka.filters.unsupervised.attribute.Remove-R27-28-weka.filters.unsupervised.attribute.NumericToNominal-R1,2,4,5,6,8-11,13-18,20-weka.filters.supervised.instance.StratifiedRemoveFolds-S0-V-N5-F1',4,3,weka.classifiers.functions.Logistic,'-R 3.0 -M -1 -num-decimal-places 4',3932117032546553727,20261008.1419,3185,354,305,49,0,86.158192,13.841808,0,0.723164,0.230822,0.335147,46.16449,67.029271,354.000629,182.860196,171.140432,1.000002,0.516554,0.483448,200.929771,0.567598,56.759722,0.80791,143,0.084746,15,0.915254,162,0.19209,34,0.905063,0.80791,0.853731,0.727367,0.917872,0.930539,0.861582,0.138418,0.861582,0.138418,0.865797,0.861582,0.861182,0.727367,0.917872,0.918179,0.861182,0.861582,0.278,0.001,0.27734,0.000241,277.34,0.241,23007,862635,101096,100,86.016949,?,?
'data_all-weka.filters.unsupervised.attribute.Remove-R8,30-33-weka.filters.unsupervised.attribute.Remove-R27-28-weka.filters.unsupervised.attribute.NumericToNominal-R1,2,4,5,6,8-11,13-18,20-weka.filters.supervised.instance.StratifiedRemoveFolds-S0-V-N5-F1',4,4,weka.classifiers.functions.Logistic,'-R 3.0 -M -1 -num-decimal-places 4',3932117032546553727,20261008.1419,3185,354,287,67,0,81.073446,18.926554,0,0.621469,0.261118,0.363269,52.223607,72.653661,354.000629,209.262151,144.738478,1.000002,0.591136,0.408866,178.702177,0.504808,50.480751,0.740113,131,0.118644,21,0.881356,156,0.259887,46,0.861842,0.740113,0.796353,0.627762,0.891347,0.905504,0.810734,0.189266,0.810734,0.189266,0.81706,0.810734,0.809786,0.627762,0.891347,0.889512,0.809786,0.810734,0.271,0,0.270064,0.00024,270.064,0.24,23007,862635,101096,99.435028,88.276836,?,?
'data_all-weka.filters.unsupervised.attribute.Remove-R8,30-33-weka.filters.unsupervised.attribute.Remove-R27-28-weka.filters.unsupervised.attribute.NumericToNominal-R1,2,4,5,6,8-11,13-18,20-weka.filters.supervised.instance.StratifiedRemoveFolds-S0-V-N5-F1',4,5,weka.classifiers.functions.Logistic,'-R 3.0 -M -1 -num-decimal-places 4',3932117032546553727,20261008.1419,3185,354,296,58,0,83.615819,16.384181,0,0.672316,0.231953,0.336578,46.39066,67.315487,354.000629,181.261647,172.738982,1.000002,0.512039,0.487963,198.740035,0.561413,56.141153,0.80226,142,0.129944,23,0.870056,154,0.19774,35,0.860606,0.80226,0.830409,0.673867,0.91768,0.932829,0.836158,0.163842,0.836158,0.163842,0.83771,0.836158,0.83597,0.673867,0.91768,0.912965,0.83597,0.836158,0.265,0,0.264598,0.000216,264.598,0.216,23007,862635,101096,99.717514,87.146893,?,?
'data_all-weka.filters.unsupervised.attribute.Remove-R8,30-33-weka.filters.unsupervised.attribute.Remove-R27-28-weka.filters.unsupervised.attribute.NumericToNominal-R1,2,4,5,6,8-11,13-18,20-weka.filters.supervised.instance.StratifiedRemoveFolds-S0-V-N5-F1',4,6,weka.classifiers.functions.Logistic,'-R 3.0 -M -1 -num-decimal-places 4',3932117032546553727,20261008.1419,3185,354,291,63,0,82.20339,17.79661,0,0.644068,0.25323,0.355356,50.646033,71.071208,354.000629,200.275304,153.725324,1.000002,0.565749,0.434252,183.762077,0.519102,51.910099,0.774011,137,0.129944,23,0.870056,154,0.225989,40,0.85625,0.774011,0.813056,0.647059,0.897794,0.914553,0.822034,0.177966,0.822034,0.177966,0.825032,0.822034,0.821623,0.647059,0.897794,0.895841,0.821623,0.822034,0.265,0,0.264611,0.000238,264.611,0.238,23007,862635,101096,99.717514,87.429379,?,?
'data_all-weka.filters.unsupervised.attribute.Remove-R8,30-33-weka.filters.unsupervised.attribute.Remove-R27-28-weka.filters.unsupervised.attribute.NumericToNominal-R1,2,4,5,6,8-11,13-18,20-weka.filters.supervised.instance.StratifiedRemoveFolds-S0-V-N5-F1',4,7,weka.classifiers.functions.Logistic,'-R 3.0 -M -1 -num-decimal-places 4',3932117032546553727,20261008.1419,3185,354,286,68,0,80.79096,19.20904,0,0.615819,0.263831,0.373224,52.766177,74.644648,354.000629,222.913161,131.087467,1.000002,0.629698,0.370304,176.120223,0.497515,49.751387,0.774011,137,0.158192,28,0.841808,149,0.225989,40,0.830303,0.774011,0.80117,0.617239,0.877111,0.896065,0.80791,0.19209,0.80791,0.19209,0.809331,0.80791,0.807689,0.617239,0.877111,0.867768,0.807689,0.80791,0.276,0,0.274747,0.000244,274.747,0.244,23007,862635,101096,98.870056,87.146893,?,?
'data_all-weka.filters.unsupervised.attribute.Remove-R8,30-33-weka.filters.unsupervised.attribute.Remove-R27-28-weka.filters.unsupervised.attribute.NumericToNominal-R1,2,4,5,6,8-11,13-18,20-weka.filters.supervised.instance.StratifiedRemoveFolds-S0-V-N5-F1',4,8,weka.classifiers.functions.Logistic,'-R 3.0 -M -1 -num-decimal-places 4',3932117032546553727,20261008.1419,3185,354,290,64,0,81.920904,18.079096,0,0.638418,0.253447,0.368945,50.689425,73.788827,354.000629,220.989627,133.011001,1.000002,0.624264,0.375737,183.058906,0.517116,51.711463,0.768362,136,0.129944,23,0.870056,154,0.231638,41,0.855346,0.768362,0.809524,0.641745,0.87992,0.897726,0.819209,0.180791,0.819209,0.180791,0.822545,0.819209,0.81874,0.641745,0.87992,0.871082,0.81874,0.819209,0.264,0,0.263266,0.000284,263.266,0.284,23007,862635,101096,99.152542,84.887006,?,?
'data_all-weka.filters.unsupervised.attribute.Remove-R8,30-33-weka.filters.unsupervised.attribute.Remove-R27-28-weka.filters.unsupervised.attribute.NumericToNominal-R1,2,4,5,6,8-11,13-18,20-weka.filters.supervised.instance.StratifiedRemoveFolds-S0-V-N5-F1',4,9,weka.classifiers.functions.Logistic,'-R 3.0 -M -1 -num-decimal-places 4',3932117032546553727,20261008.1419,3185,354,299,55,0,84.463277,15.536723,0,0.689266,0.236123,0.336772,47.224572,67.354276,354.000629,186.821621,167.179007,1.000002,0.527745,0.472257,197.45164,0.557773,55.7772,0.785311,139,0.096045,17,0.903955,160,0.214689,38,0.891026,0.785311,0.834835,0.694169,0.913626,0.929957,0.844633,0.155367,0.844633,0.155367,0.849553,0.844633,0.844084,0.694169,0.913626,0.906805,0.844084,0.844633,0.276,0,0.274482,0.000239,274.482,0.239,23007,862635,101096,99.152542,85.734463,?,?
'data_all-weka.filters.unsupervised.attribute.Remove-R8,30-33-weka.filters.unsupervised.attribute.Remove-R27-28-weka.filters.unsupervised.attribute.NumericToNominal-R1,2,4,5,6,8-11,13-18,20-weka.filters.supervised.instance.StratifiedRemoveFolds-S0-V-N5-F1',4,10,weka.classifiers.functions.Logistic,'-R 3.0 -M -1 -num-decimal-places 4',3932117032546553727,20261008.1419,3186,353,286,67,0,81.01983,18.98017,0,0.620436,0.260538,0.360115,52.107869,72.02328,352.998591,206.429063,146.569528,0.999996,0.584785,0.415211,178.1853,0.504774,50.477624,0.79096,140,0.170455,30,0.829545,146,0.20904,37,0.823529,0.79096,0.806916,0.620925,0.89365,0.913546,0.810198,0.189692,0.810308,0.189802,0.810708,0.810198,0.810134,0.620925,0.89365,0.887004,0.810143,0.810198,0.28,0,0.277198,0.000259,277.198,0.259,23007,862904,100827,99.433428,88.243626,?,?
'data_all-weka.filters.unsupervised.attribute.Remove-R8,30-33-weka.filters.unsupervised.attribute.Remove-R27-28-weka.filters.unsupervised.attribute.NumericToNominal-R1,2,4,5,6,8-11,13-18,20-weka.filters.supervised.instance.StratifiedRemoveFolds-S0-V-N5-F1',5,1,weka.classifiers.functions.Logistic,'-R 3.0 -M -1 -num-decimal-places 4',3932117032546553727,20261008.1419,3185,354,291,63,0,82.20339,17.79661,0,0.644249,0.263429,0.372141,52.686122,74.428532,353.99751,227.984405,126.013105,0.999993,0.644024,0.355969,177.531803,0.501502,50.15058,0.775281,138,0.130682,23,0.869318,153,0.224719,40,0.857143,0.775281,0.814159,0.647239,0.872989,0.893279,0.822034,0.177435,0.822565,0.177966,0.825126,0.822034,0.821671,0.647239,0.872989,0.86553,0.821714,0.822034,0.265,0,0.264809,0.000245,264.809,0.245,23007,862635,101096,98.022599,86.723164,?,?
'data_all-weka.filters.unsupervised.attribute.Remove-R8,30-33-weka.filters.unsupervised.attribute.Remove-R27-28-weka.filters.unsupervised.attribute.NumericToNominal-R1,2,4,5,6,8-11,13-18,20-weka.filters.supervised.instance.StratifiedRemoveFolds-S0-V-N5-F1',5,2,weka.classifiers.functions.Logistic,'-R 3.0 -M -1 -num-decimal-places 4',3932117032546553727,20261008.1419,3185,354,296,58,0,83.615819,16.384181,0,0.672536,0.24628,0.347755,49.256313,69.551395,353.99751,194.597575,159.399935,0.999993,0.549711,0.450282,190.184891,0.537245,53.724923,0.775281,138,0.102273,18,0.897727,158,0.224719,40,0.884615,0.775281,0.826347,0.677785,0.902068,0.921751,0.836158,0.16315,0.83685,0.163842,0.841542,0.836158,0.835581,0.677785,0.902068,0.899375,0.835634,0.836158,0.284,0.001,0.283209,0.00031,283.209,0.31,23007,862635,101096,99.717514,88.700565,?,?
'data_all-weka.filters.unsupervised.attribute.Remove-R8,30-33-weka.filters.unsupervised.attribute.Remove-R27-28-weka.filters.unsupervised.attribute.NumericToNominal-R1,2,4,5,6,8-11,13-18,20-weka.filters.supervised.instance.StratifiedRemoveFolds-S0-V-N5-F1',5,3,weka.classifiers.functions.Logistic,'-R 3.0 -M -1 -num-decimal-places 4',3932117032546553727,20261008.1419,3185,354,292,62,0,82.485876,17.514124,0,0.649718,0.254775,0.353006,50.955031,70.601016,354.000629,208.070232,145.930396,1.000002,0.587769,0.412233,184.126775,0.520132,52.013121,0.768362,136,0.118644,21,0.881356,156,0.231638,41,0.866242,0.768362,0.814371,0.653905,0.901529,0.91674,0.824859,0.175141,0.824859,0.175141,0.82906,0.824859,0.824298,0.653905,0.901529,0.888019,0.824298,0.824859,0.271,0.001,0.270774,0.000299,270.774,0.299,23007,862635,101096,99.152542,88.135593,?,?
'data_all-weka.filters.unsupervised.attribute.Remove-R8,30-33-weka.filters.unsupervised.attribute.Remove-R27-28-weka.filters.unsupervised.attribute.NumericToNominal-R1,2,4,5,6,8-11,13-18,20-weka.filters.supervised.instance.StratifiedRemoveFolds-S0-V-N5-F1',5,4,weka.classifiers.functions.Logistic,'-R 3.0 -M -1 -num-decimal-places 4',3932117032546553727,20261008.1419,3185,354,292,62,0,82.485876,17.514124,0,0.649718,0.228308,0.344499,45.661561,68.899649,354.000629,193.132163,160.868465,1.000002,0.545571,0.454431,200.853155,0.567382,56.738079,0.836158,148,0.186441,33,0.813559,144,0.163842,29,0.81768,0.836158,0.826816,0.649883,0.904306,0.924826,0.824859,0.175141,0.824859,0.175141,0.825025,0.824859,0.824836,0.649883,0.904306,0.897465,0.824836,0.824859,0.263,0.001,0.262838,0.000244,262.838,0.244,23007,862635,101096,98.870056,84.180791,?,?
'data_all-weka.filters.unsupervised.attribute.Remove-R8,30-33-weka.filters.unsupervised.attribute.Remove-R27-28-weka.filters.unsupervised.attribute.NumericToNominal-R1,2,4,5,6,8-11,13-18,20-weka.filters.supervised.instance.StratifiedRemoveFolds-S0-V-N5-F1',5,5,weka.classifiers.functions.Logistic,'-R 3.0 -M -1 -num-decimal-places 4',3932117032546553727,20261008.1419,3185,354,293,61,0,82.768362,17.231638,0,0.655367,0.249768,0.351212,49.953567,70.242214,354.000629,198.021758,155.978871,1.000002,0.559383,0.440618,186.718548,0.527454,52.745259,0.757062,134,0.101695,18,0.898305,159,0.242938,43,0.881579,0.757062,0.81459,0.662004,0.899422,0.917294,0.827684,0.172316,0.827684,0.172316,0.834354,0.827684,0.82682,0.662004,0.899422,0.897309,0.82682,0.827684,0.273,0,0.272178,0.000256,272.178,0.256,23007,862635,101096,99.717514,87.00565,?,?
'data_all-weka.filters.unsupervised.attribute.Remove-R8,30-33-weka.filters.unsupervised.attribute.Remove-R27-28-weka.filters.unsupervised.attribute.NumericToNominal-R1,2,4,5,6,8-11,13-18,20-weka.filters.supervised.instance.StratifiedRemoveFolds-S0-V-N5-F1',5,6,weka.classifiers.functions.Logistic,'-R 3.0 -M -1 -num-decimal-places 4',3932117032546553727,20261008.1419,3185,354,291,63,0,82.20339,17.79661,0,0.644068,0.246119,0.354602,49.22382,70.92024,354.000629,197.187386,156.813242,1.000002,0.557027,0.442975,188.17023,0.531554,53.155338,0.785311,139,0.141243,25,0.858757,152,0.214689,38,0.847561,0.785311,0.815249,0.645812,0.90204,0.917076,0.822034,0.177966,0.822034,0.177966,0.82378,0.822034,0.821794,0.645812,0.90204,0.904543,0.821794,0.822034,0.267,0,0.266157,0.000257,266.157,0.257,23007,862635,101096,99.717514,84.60452,?,?
'data_all-weka.filters.unsupervised.attribute.Remove-R8,30-33-weka.filters.unsupervised.attribute.Remove-R27-28-weka.filters.unsupervised.attribute.NumericToNominal-R1,2,4,5,6,8-11,13-18,20-weka.filters.supervised.instance.StratifiedRemoveFolds-S0-V-N5-F1',5,7,weka.classifiers.functions.Logistic,'-R 3.0 -M -1 -num-decimal-places 4',3932117032546553727,20261008.1419,3185,354,294,60,0,83.050847,16.949153,0,0.661017,0.24754,0.352657,49.508065,70.531356,354.000629,200.478007,153.522622,1.000002,0.566322,0.43368,188.379418,0.532145,53.21443,0.762712,135,0.101695,18,0.898305,159,0.237288,42,0.882353,0.762712,0.818182,0.667179,0.897986,0.917821,0.830508,0.169492,0.830508,0.169492,0.836699,0.830508,0.829726,0.667179,0.897986,0.88621,0.829726,0.830508,0.265,0.001,0.265624,0.000278,265.624,0.278,23007,862635,101096,99.435028,87.00565,?,?
'data_all-weka.filters.unsupervised.attribute.Remove-R8,30-33-weka.filters.unsupervised.attribute.Remove-R27-28-weka.filters.unsupervised.attribute.NumericToNominal-R1,2,4,5,6,8-11,13-18,20-weka.filters.supervised.instance.StratifiedRemoveFolds-S0-V-N5-F1',5,8,weka.classifiers.functions.Logistic,'-R 3.0 -M -1 -num-decimal-places 4',3932117032546553727,20261008.1419,3185,354,289,65,0,81.638418,18.361582,0,0.632768,0.253851,0.353341,50.770169,70.668045,354.000629,194.467034,159.533594,1.000002,0.549342,0.45066,182.866794,0.516573,51.657195,0.79096,140,0.158192,28,0.841808,149,0.20904,37,0.833333,0.79096,0.811594,0.633588,0.899773,0.92017,0.816384,0.183616,0.816384,0.183616,0.817204,0.816384,0.816265,0.633588,0.899773,0.90181,0.816265,0.816384,0.263,0,0.262047,0.000233,262.047,0.233,23007,862635,101096,100,87.99435,?,?
'data_all-weka.filters.unsupervised.attribute.Remove-R8,30-33-weka.filters.unsupervised.attribute.Remove-R27-28-weka.filters.unsupervised.attribute.NumericToNominal-R1,2,4,5,6,8-11,13-18,20-weka.filters.supervised.instance.StratifiedRemoveFolds-S0-V-N5-F1',5,9,weka.classifiers.functions.Logistic,'-R 3.0 -M -1 -num-decimal-places 4',3932117032546553727,20261008.1419,3185,354,280,74,0,79.096045,20.903955,0,0.581921,0.270496,0.371748,54.099169,74.349415,354.000629,216.328272,137.672357,1.000002,0.611097,0.388905,171.160781,0.483505,48.350417,0.740113,131,0.158192,28,0.841808,149,0.259887,46,0.823899,0.740113,0.779762,0.584954,0.883495,0.898232,0.79096,0.20904,0.79096,0.20904,0.794001,0.79096,0.790419,0.584954,0.883495,0.876879,0.790419,0.79096,0.266,0,0.263831,0.000296,263.831,0.296,23007,862635,101096,99.152542,88.841808,?,?
'data_all-weka.filters.unsupervised.attribute.Remove-R8,30-33-weka.filters.unsupervised.attribute.Remove-R27-28-weka.filters.unsupervised.attribute.NumericToNominal-R1,2,4,5,6,8-11,13-18,20-weka.filters.supervised.instance.StratifiedRemoveFolds-S0-V-N5-F1',5,10,weka.classifiers.functions.Logistic,'-R 3.0 -M -1 -num-decimal-places 4',3932117032546553727,20261008.1419,3186,353,294,59,0,83.286119,16.713881,0,0.665779,0.231712,0.33901,46.342542,67.802144,352.998591,185.519574,167.479016,0.999996,0.525551,0.474445,198.257661,0.561636,56.163868,0.80226,142,0.136364,24,0.863636,152,0.19774,35,0.855422,0.80226,0.827988,0.667075,0.920583,0.921698,0.832861,0.166965,0.833035,0.167139,0.834188,0.832861,0.832714,0.667075,0.920583,0.922923,0.832727,0.832861,0.285,0,0.284382,0.000245,284.382,0.245,23007,862904,100827,99.433428,85.835694,?,?
'data_all-weka.filters.unsupervised.attribute.Remove-R8,30-33-weka.filters.unsupervised.attribute.Remove-R27-28-weka.filters.unsupervised.attribute.NumericToNominal-R1,2,4,5,6,8-11,13-18,20-weka.filters.supervised.instance.StratifiedRemoveFolds-S0-V-N5-F1',6,1,weka.classifiers.functions.Logistic,'-R 3.0 -M -1 -num-decimal-places 4',3932117032546553727,20261008.1419,3185,354,298,56,0,84.180791,15.819209,0,0.683616,0.237242,0.338281,47.448439,67.65607,354.000629,187.158817,166.841812,1.000002,0.528697,0.471305,196.323097,0.554585,55.458404,0.80226,142,0.118644,21,0.881356,156,0.19774,35,0.871166,0.80226,0.835294,0.685764,0.912828,0.9275,0.841808,0.158192,0.841808,0.158192,0.84396,0.841808,0.84156,0.685764,0.912828,0.906881,0.84156,0.841808,0.263,0.001,0.263249,0.000276,263.249,0.276,23007,862635,101096,99.435028,86.723164,?,?
'data_all-weka.filters.unsupervised.attribute.Remove-R8,30-33-weka.filters.unsupervised.attribute.Remove-R27-28-weka.filters.unsupervised.attribute.NumericToNominal-R1,2,4,5,6,8-11,13-18,20-weka.filters.supervised.instance.StratifiedRemoveFolds-S0-V-N5-F1',6,2,weka.classifiers.functions.Logistic,'-R 3.0 -M -1 -num-decimal-places 4',3932117032546553727,20261008.1419,3185,354,298,56,0,84.180791,15.819209,0,0.683616,0.241889,0.345515,48.377843,69.102901,354.000629,194.441984,159.558645,1.000002,0.549271,0.450731,193.048149,0.545334,54.533279,0.774011,137,0.090395,16,0.909605,161,0.225989,40,0.895425,0.774011,0.830303,0.689988,0.906125,0.921491,0.841808,0.158192,0.841808,0.158192,0.84821,0.841808,0.841077,0.689988,0.906125,0.90175,0.841077,0.841808,0.273,0,0.272007,0.000245,272.007,0.245,23007,862635,101096,99.435028,87.146893,?,?
'data_all-weka.filters.unsupervised.attribute.Remove-R8,30-33-weka.filters.unsupervised.attribute.Remove-R27-28-weka.filters.unsupervised.attribute.NumericToNominal-R1,2,4,5,6,8-11,13-18,20-weka.filters.supervised.instance.StratifiedRemoveFolds-S0-V-N5-F1',6,3,weka.classifiers.functions.Logistic,'-R 3.0 -M -1 -num-decimal-places 4',3932117032546553727,20261008.1419,3185,354,294,60,0,83.050847,16.949153,0,0.661017,0.241718,0.353142,48.343519,70.628333,354.000629,203.869944,150.130684,1.000002,0.575904,0.424098,192.307707,0.543242,54.324115,0.819209,145,0.158192,28,0.841808,149,0.180791,32,0.83815,0.819209,0.828571,0.661186,0.894602,0.917343,0.830508,0.169492,0.830508,0.169492,0.830677,0.830508,0.830487,0.661186,0.894602,0.884211,0.830487,0.830508,0.261,0.001,0.259656,0.00024,259.656,0.24,23007,862635,101096,99.152542,86.440678,?,?
'data_all-weka.filters.unsupervised.attribute.Remove-R8,30-33-weka.filters.unsupervised.attribute.Remove-R27-28-weka.filters.unsupervised.attribute.NumericToNominal-R1,2,4,5,6,8-11,13-18,20-weka.filters.supervised.instance.StratifiedRemoveFolds-S0-V-N5-F1',6,4,weka.classifiers.functions.Logistic,'-R 3.0 -M -1 -num-decimal-places 4',3932117032546553727,20261008.1419,3185,354,272,82,0,76.836158,23.163842,0,0.536723,0.275926,0.395089,55.185173,79.017672,354.000629,245.180246,108.820382,1.000002,0.6926,0.307402,165.11312,0.466421,46.642042,0.706215,125,0.169492,30,0.830508,147,0.293785,52,0.806452,0.706215,0.753012,0.540918,0.85298,0.87998,0.768362,0.231638,0.768362,0.231638,0.772573,0.768362,0.767463,0.540918,0.85298,0.847618,0.767463,0.768362,0.289,0,0.287219,0.000252,287.219,0.252,23007,862635,101096,98.587571,84.887006,?,?
'data_all-weka.filters.unsupervised.attribute.Remove-R8,30-33-weka.filters.unsupervised.attribute.Remove-R27-28-weka.filters.unsupervised.attribute.NumericToNominal-R1,2,4,5,6,8-11,13-18,20-weka.filters.supervised.instance.StratifiedRemoveFolds-S0-V-N5-F1',6,5,weka.classifiers.functions.Logistic,'-R 3.0 -M -1 -num-decimal-places 4',3932117032546553727,20261008.1419,3185,354,289,65,0,81.638418,18.361582,0,0.632768,0.243291,0.340199,48.658268,68.039811,354.000629,182.752508,171.248121,1.000002,0.51625,0.483752,190.900648,0.539267,53.926641,0.762712,135,0.129944,23,0.870056,154,0.237288,42,0.85443,0.762712,0.80597,0.636446,0.921957,0.928869,0.816384,0.183616,0.816384,0.183616,0.820072,0.816384,0.815854,0.636446,0.921957,0.925293,0.815854,0.816384,0.274,0,0.273654,0.000245,273.654,0.245,23007,862635,101096,100,87.429379,?,?
'data_all-weka.filters.unsupervised.attribute.Remove-R8,30-33-weka.filters.unsupervised.attribute.Remove-R27-28-weka.filters.unsupervised.attribute.NumericToNominal-R1,2,4,5,6,8-11,13-18,20-weka.filters.supervised.instance.StratifiedRemoveFolds-S0-V-N5-F1',6,6,weka.classifiers.functions.Logistic,'-R 3.0 -M -1 -num-decimal-places 4',3932117032546553727,20261008.1419,3185,354,293,61,0,82.768362,17.231638,0,0.655367,0.241583,0.344004,48.316502,68.800699,354.000629,189.939072,164.061556,1.000002,0.536551,0.463451,192.299935,0.54322,54.321919,0.80226,142,0.146893,26,0.853107,151,0.19774,35,0.845238,0.80226,0.823188,0.656216,0.910211,0.922564,0.827684,0.172316,0.827684,0.172316,0.828533,0.827684,0.827572,0.656216,0.910211,0.91028,0.827572,0.827684,0.28,0,0.27912,0.00026,279.12,0.26,23007,862635,101096,99.717514,87.288136,?,?
'data_all-weka.filters.unsupervised.attribute.Remove-R8,30-33-weka.filters.unsupervised.attribute.Remove-R27-28-weka.filters.unsupervised.attribute.NumericToNominal-R1,2,4,5,6,8-11,13-18,20-weka.filters.supervised.instance.StratifiedRemoveFolds-S0-V-N5-F1',6,7,weka.classifiers.functions.Logistic,'-R 3.0 -M -1 -num-decimal-places 4',3932117032546553727,20261008.1419,3185,354,289,65,0,81.638418,18.361582,0,0.632768,0.25807,0.35286,51.61405,70.571977,354.000629,202.782522,151.218107,1.000002,0.572832,0.42717,181.895168,0.513828,51.382724,0.751412,133,0.118644,21,0.881356,156,0.248588,44,0.863636,0.751412,0.803625,0.638179,0.90188,0.909524,0.816384,0.183616,0.816384,0.183616,0.821818,0.816384,0.815606,0.638179,0.90188,0.898649,0.815606,0.816384,0.265,0.001,0.26419,0.000239,264.19,0.239,23007,862635,101096,99.435028,88.418079,?,?
'data_all-weka.filters.unsupervised.attribute.Remove-R8,30-33-weka.filters.unsupervised.attribute.Remove-R27-28-weka.filters.unsupervised.attribute.NumericToNominal-R1,2,4,5,6,8-11,13-18,20-weka.filters.supervised.instance.StratifiedRemoveFolds-S0-V-N5-F1',6,8,weka.classifiers.functions.Logistic,'-R 3.0 -M -1 -num-decimal-places 4',3932117032546553727,20261008.1419,3185,354,292,62,0,82.485876,17.514124,0,0.649751,0.247255,0.358337,49.451246,71.667809,353.99751,203.892004,150.105506,0.999993,0.575966,0.424027,187.577674,0.52988,52.988416,0.814607,145,0.164773,29,0.835227,147,0.185393,33,0.833333,0.814607,0.823864,0.649917,0.897759,0.912133,0.824859,0.175025,0.824975,0.175141,0.825047,0.824859,0.824848,0.649917,0.897759,0.897657,0.824853,0.824859,0.282,0,0.280156,0.000348,280.156,0.348,23007,862635,101096,99.435028,86.016949,?,?
'data_all-weka.filters.unsupervised.attribute.Remove-R8,30-33-weka.filters.unsupervised.attribute.Remove-R27-28-weka.filters.unsupervised.attribute.NumericToNominal-R1,2,4,5,6,8-11,13-18,20-weka.filters.supervised.instance.StratifiedRemoveFolds-S0-V-N5-F1',6,9,weka.classifiers.functions.Logistic,'-R 3.0 -M -1 -num-decimal-places 4',3932117032546553727,20261008.1419,3185,354,288,66,0,81.355932,18.644068,0,0.627321,0.256964,0.361435,51.393002,72.287308,353.99751,210.804663,143.192848,0.999993,0.595493,0.4045,181.518544,0.512764,51.276785,0.764045,136,0.136364,24,0.863636,152,0.235955,42,0.85,0.764045,0.804734,0.630587,0.886906,0.912136,0.813559,0.185878,0.814122,0.186441,0.81694,0.813559,0.81313,0.630587,0.886906,0.873324,0.813178,0.813559,0.277,0.001,0.276881,0.000258,276.881,0.258,23007,862635,101096,99.152542,87.711864,?,?
'data_all-weka.filters.unsupervised.attribute.Remove-R8,30-33-weka.filters.unsupervised.attribute.Remove-R27-28-weka.filters.unsupervised.attribute.NumericToNominal-R1,2,4,5,6,8-11,13-18,20-weka.filters.supervised.instance.StratifiedRemoveFolds-S0-V-N5-F1',6,10,weka.classifiers.functions.Logistic,'-R 3.0 -M -1 -num-decimal-places 4',3932117032546553727,20261008.1419,3186,353,293,60,0,83.002833,16.997167,0,0.660152,0.252337,0.353917,50.467653,70.783534,352.998591,198.827532,154.171059,0.999996,0.563251,0.436745,184.724459,0.523299,52.330084,0.779661,138,0.119318,21,0.880682,155,0.220339,39,0.867925,0.779661,0.821429,0.66361,0.898754,0.915714,0.830028,0.169685,0.830315,0.169972,0.833544,0.830028,0.82961,0.66361,0.898754,0.898588,0.829633,0.830028,0.263,0,0.262327,0.000238,262.327,0.238,23007,862904,100827,99.716714,87.818697,?,?
'data_all-weka.filters.unsupervised.attribute.Remove-R8,30-33-weka.filters.unsupervised.attribute.Remove-R27-28-weka.filters.unsupervised.attribute.NumericToNominal-R1,2,4,5,6,8-11,13-18,20-weka.filters.supervised.instance.StratifiedRemoveFolds-S0-V-N5-F1',7,1,weka.classifiers.functions.Logistic,'-R 3.0 -M -1 -num-decimal-places 4',3932117032546553727,20261008.1419,3185,354,284,70,0,80.225989,19.774011,0,0.60452,0.265503,0.372471,53.100534,74.494147,354.000629,225.587134,128.413495,1.000002,0.637252,0.36275,175.150333,0.494775,49.477407,0.734463,130,0.129944,23,0.870056,154,0.265537,47,0.849673,0.734463,0.787879,0.610155,0.882186,0.89265,0.80226,0.19774,0.80226,0.19774,0.807921,0.80226,0.801347,0.610155,0.882186,0.870856,0.801347,0.80226,0.268,0.001,0.267953,0.000267,267.953,0.267,23007,862635,101096,99.435028,89.124294,?,?
'data_all-weka.filters.unsupervised.attribute.Remove-R8,30-33-weka.filters.unsupervised.attribute.Remove-R27-28-weka.filters.unsupervised.attribute.NumericToNominal-R1,2,4,5,6,8-11,13-18,20-weka.filters.supervised.instance.StratifiedRemoveFolds-S0-V-N5-F1',7,2,weka.classifiers.functions.Logistic,'-R 3.0 -M -1 -num-decimal-places 4',3932117032546553727,20261008.1419,3185,354,293,61,0,82.768362,17.231638,0,0.655367,0.242463,0.355657,48.492601,71.131372,354.000629,205.026012,148.974616,1.000002,0.57917,0.420832,191.684307,0.541481,54.148013,0.751412,133,0.096045,17,0.903955,160,0.248588,44,0.886667,0.751412,0.813456,0.663128,0.892017,0.91317,0.827684,0.172316,0.827684,0.172316,0.83549,0.827684,0.826675,0.663128,0.892017,0.885329,0.826675,0.827684,0.281,0,0.279642,0.000247,279.642,0.247,23007,862635,101096,99.152542,87.00565,?,?
'data_all-weka.filters.unsupervised.attribute.Remove-R8,30-33-weka.filters.unsupervised.attribute.Remove-R27-28-weka.filters.unsupervised.attribute.NumericToNominal-R1,2,4,5,6,8-11,13-18,20-weka.filters.supervised.instance.StratifiedRemoveFolds-S0-V-N5-F1',7,3,weka.classifiers.functions.Logistic,'-R 3.0 -M -1 -num-decimal-places 4',3932117032546553727,20261008.1419,3185,354,287,67,0,81.073446,18.926554,0,0.621469,0.263287,0.364607,52.657495,72.921235,354.000629,209.808803,144.191826,1.000002,0.59268,0.407322,176.591023,0.498845,49.884381,0.762712,135,0.141243,25,0.858757,152,0.237288,42,0.84375,0.762712,0.801187,0.624355,0.885888,0.905319,0.810734,0.189266,0.810734,0.189266,0.813628,0.810734,0.810297,0.624355,0.885888,0.885362,0.810297,0.810734,0.276,0,0.275321,0.000251,275.321,0.251,23007,862635,101096,99.435028,86.581921,?,?
'data_all-weka.filters.unsupervised.attribute.Remove-R8,30-33-weka.filters.unsupervised.attribute.Remove-R27-28-weka.filters.unsupervised.attribute.NumericToNominal-R1,2,4,5,6,8-11,13-18,20-weka.filters.supervised.instance.StratifiedRemoveFolds-S0-V-N5-F1',7,4,weka.classifiers.functions.Logistic,'-R 3.0 -M -1 -num-decimal-places 4',3932117032546553727,20261008.1419,3185,354,292,62,0,82.485876,17.514124,0,0.649718,0.250113,0.362712,50.022612,72.54233,354.000629,211.0312,142.969429,1.000002,0.596133,0.403868,185.980203,0.525368,52.536687,0.813559,144,0.163842,29,0.836158,148,0.186441,33,0.83237,0.813559,0.822857,0.649883,0.893421,0.902532,0.824859,0.175141,0.824859,0.175141,0.825025,0.824859,0.824836,0.649883,0.893421,0.894057,0.824836,0.824859,0.271,0,0.270567,0.000299,270.567,0.299,23007,862635,101096,98.870056,85.875706,?,?
'data_all-weka.filters.unsupervised.attribute.Remove-R8,30-33-weka.filters.unsupervised.attribute.Remove-R27-28-weka.filters.unsupervised.attribute.NumericToNominal-R1,2,4,5,6,8-11,13-18,20-weka.filters.supervised.instance.StratifiedRemoveFolds-S0-V-N5-F1',7,5,weka.classifiers.functions.Logistic,'-R 3.0 -M -1 -num-decimal-places 4',3932117032546553727,20261008.1419,3185,354,299,55,0,84.463277,15.536723,0,0.689266,0.244722,0.343603,48.944315,68.72059,354.000629,192.624767,161.375862,1.000002,0.544138,0.455864,191.407077,0.540698,54.0697,0.80791,143,0.118644,21,0.881356,156,0.19209,34,0.871951,0.80791,0.83871,0.691132,0.906604,0.9241,0.844633,0.155367,0.844633,0.155367,0.846502,0.844633,0.844423,0.691132,0.906604,0.899109,0.844423,0.844633,0.273,0,0.272412,0.000265,272.412,0.265,23007,862635,101096,99.435028,86.581921,?,?
'data_all-weka.filters.unsupervised.attribute.Remove-R8,30-33-weka.filters.unsupervised.attribute.Remove-R27-28-weka.filters.unsupervised.attribute.NumericToNominal-R1,2,4,5,6,8-11,13-18,20-weka.filters.supervised.instance.StratifiedRemoveFolds-S0-V-N5-F1',7,6,weka.classifiers.functions.Logistic,'-R 3.0 -M -1 -num-decimal-places 4',3932117032546553727,20261008.1419,3185,354,288,66,0,81.355932,18.644068,0,0.627119,0.248872,0.353027,49.774498,70.605239,354.000629,198.955937,155.044691,1.000002,0.562022,0.437979,186.960482,0.528137,52.813602,0.785311,139,0.158192,28,0.841808,149,0.214689,38,0.832335,0.785311,0.80814,0.628122,0.900891,0.917066,0.813559,0.186441,0.813559,0.186441,0.814563,0.813559,0.81341,0.628122,0.900891,0.892102,0.81341,0.813559,0.264,0,0.262967,0.000261,262.967,0.261,23007,862635,101096,98.870056,87.429379,?,?
'data_all-weka.filters.unsupervised.attribute.Remove-R8,30-33-weka.filters.unsupervised.attribute.Remove-R27-28-weka.filters.unsupervised.attribute.NumericToNominal-R1,2,4,5,6,8-11,13-18,20-weka.filters.supervised.instance.StratifiedRemoveFolds-S0-V-N5-F1',7,7,weka.classifiers.functions.Logistic,'-R 3.0 -M -1 -num-decimal-places 4',3932117032546553727,20261008.1419,3185,354,291,63,0,82.20339,17.79661,0,0.644068,0.253219,0.354397,50.643767,70.879327,354.000629,200.235221,153.765408,1.000002,0.565636,0.434366,184.117457,0.520106,52.010489,0.79096,140,0.146893,26,0.853107,151,0.20904,37,0.843373,0.79096,0.816327,0.645315,0.898145,0.917632,0.822034,0.177966,0.822034,0.177966,0.823282,0.822034,0.821862,0.645315,0.898145,0.890853,0.821862,0.822034,0.281,0,0.279153,0.000279,279.153,0.279,23007,862635,101096,99.717514,87.570621,?,?
'data_all-weka.filters.unsupervised.attribute.Remove-R8,30-33-weka.filters.unsupervised.attribute.Remove-R27-28-weka.filters.unsupervised.attribute.NumericToNominal-R1,2,4,5,6,8-11,13-18,20-weka.filters.supervised.instance.StratifiedRemoveFolds-S0-V-N5-F1',7,8,weka.classifiers.functions.Logistic,'-R 3.0 -M -1 -num-decimal-places 4',3932117032546553727,20261008.1419,3185,354,303,51,0,85.59322,14.40678,0,0.711956,0.236417,0.332988,47.28372,66.597997,353.99751,186.624184,167.373326,0.999993,0.527187,0.472806,198.015834,0.559367,55.93707,0.825843,147,0.113636,20,0.886364,156,0.174157,31,0.88024,0.825843,0.852174,0.713334,0.913368,0.934819,0.855932,0.143726,0.856274,0.144068,0.857362,0.855932,0.855818,0.713334,0.913368,0.90376,0.855839,0.855932,0.271,0,0.270763,0.000258,270.763,0.258,23007,862635,101096,99.717514,87.00565,?,?
'data_all-weka.filters.unsupervised.attribute.Remove-R8,30-33-weka.filters.unsupervised.attribute.Remove-R27-28-weka.filters.unsupervised.attribute.NumericToNominal-R1,2,4,5,6,8-11,13-18,20-weka.filters.supervised.instance.StratifiedRemoveFolds-S0-V-N5-F1',7,9,weka.classifiers.functions.Logistic,'-R 3.0 -M -1 -num-decimal-places 4',3932117032546553727,20261008.1419,3185,354,291,63,0,82.20339,17.79661,0,0.644204,0.237269,0.342622,47.454076,68.524756,353.99751,188.185426,165.812085,0.999993,0.531597,0.468396,194.451749,0.549299,54.930259,0.786517,140,0.142045,25,0.857955,151,0.213483,38,0.848485,0.786517,0.816327,0.645947,0.914613,0.926285,0.822034,0.177562,0.822438,0.177966,0.823853,0.822034,0.821831,0.645947,0.914613,0.914868,0.821862,0.822034,0.271,0,0.269379,0.000243,269.379,0.243,23007,862635,101096,99.152542,85.310734,?,?
'data_all-weka.filters.unsupervised.attribute.Remove-R8,30-33-weka.filters.unsupervised.attribute.Remove-R27-28-weka.filters.unsupervised.attribute.NumericToNominal-R1,2,4,5,6,8-11,13-18,20-weka.filters.supervised.instance.StratifiedRemoveFolds-S0-V-N5-F1',7,10,weka.classifiers.functions.Logistic,'-R 3.0 -M -1 -num-decimal-places 4',3932117032546553727,20261008.1419,3186,353,296,57,0,83.852691,16.147309,0,0.67715,0.245949,0.348193,49.189897,69.638819,352.998591,194.890008,158.108583,0.999996,0.552096,0.4479,189.28352,0.536214,53.621608,0.785311,139,0.107955,19,0.892045,157,0.214689,38,0.879747,0.785311,0.829851,0.681105,0.904693,0.919293,0.838527,0.161171,0.838829,0.161473,0.842543,0.838527,0.838083,0.681105,0.904693,0.903192,0.838106,0.838527,0.27,0,0.269169,0.000253,269.169,0.253,23007,862904,100827,99.433428,87.110482,?,?
'data_all-weka.filters.unsupervised.attribute.Remove-R8,30-33-weka.filters.unsupervised.attribute.Remove-R27-28-weka.filters.unsupervised.attribute.NumericToNominal-R1,2,4,5,6,8-11,13-18,20-weka.filters.supervised.instance.StratifiedRemoveFolds-S0-V-N5-F1',8,1,weka.classifiers.functions.Logistic,'-R 3.0 -M -1 -num-decimal-places 4',3932117032546553727,20261008.1419,3185,354,296,58,0,83.615819,16.384181,0,0.672316,0.249912,0.345898,49.98238,69.179576,354.000629,192.431237,161.569391,1.000002,0.543591,0.456411,187.498057,0.529656,52.965459,0.813559,144,0.141243,25,0.858757,152,0.186441,33,0.852071,0.813559,0.83237,0.673004,0.905998,0.927102,0.836158,0.163842,0.836158,0.163842,0.836846,0.836158,0.836074,0.673004,0.905998,0.900234,0.836074,0.836158,0.27,0,0.266533,0.000246,266.533,0.246,23007,862635,101096,99.717514,87.570621,?,?
'data_all-weka.filters.unsupervised.attribute.Remove-R8,30-33-weka.filters.unsupervised.attribute.Remove-R27-28-weka.filters.unsupervised.attribute.NumericToNominal-R1,2,4,5,6,8-11,13-18,20-weka.filters.supervised.instance.StratifiedRemoveFolds-S0-V-N5-F1',8,2,weka.classifiers.functions.Logistic,'-R 3.0 -M -1 -num-decimal-places 4',3932117032546553727,20261008.1419,3185,354,295,59,0,83.333333,16.666667,0,0.666667,0.241143,0.345566,48.228502,69.113171,354.000629,197.922006,156.078623,1.000002,0.559102,0.4409,193.454124,0.546481,54.647961,0.79096,140,0.124294,22,0.875706,155,0.20904,37,0.864198,0.79096,0.825959,0.669074,0.898241,0.924836,0.833333,0.166667,0.833333,0.166667,0.835745,0.833333,0.833034,0.669074,0.898241,0.884896,0.833034,0.833333,0.26,0,0.260251,0.00026,260.251,0.26,23007,862635,101096,99.435028,87.99435,?,?
'data_all-weka.filters.unsupervised.attribute.Remove-R8,30-33-weka.filters.unsupervised.attribute.Remove-R27-28-weka.filters.unsupervised.attribute.NumericToNominal-R1,2,4,5,6,8-11,13-18,20-weka.filters.supervised.instance.StratifiedRemoveFolds-S0-V-N5-F1',8,3,weka.classifiers.functions.Logistic,'-R 3.0 -M -1 -num-decimal-places 4',3932117032546553727,20261008.1419,3185,354,300,54,0,84.745763,15.254237,0,0.694915,0.231157,0.334119,46.231415,66.823652,354.000629,180.661369,173.33926,1.000002,0.510343,0.489659,200.316705,0.565866,56.586539,0.79096,140,0.096045,17,0.903955,160,0.20904,37,0.89172,0.79096,0.838323,0.699394,0.918733,0.934624,0.847458,0.152542,0.847458,0.152542,0.851951,0.847458,0.846969,0.699394,0.918733,0.915573,0.846969,0.847458,0.28,0.001,0.279545,0.000249,279.545,0.249,23007,862635,101096,99.717514,86.864407,?,?
'data_all-weka.filters.unsupervised.attribute.Remove-R8,30-33-weka.filters.unsupervised.attribute.Remove-R27-28-weka.filters.unsupervised.attribute.NumericToNominal-R1,2,4,5,6,8-11,13-18,20-weka.filters.supervised.instance.StratifiedRemoveFolds-S0-V-N5-F1',8,4,weka.classifiers.functions.Logistic,'-R 3.0 -M -1 -num-decimal-places 4',3932117032546553727,20261008.1419,3185,354,296,58,0,83.615819,16.384181,0,0.672316,0.241225,0.339071,48.244994,67.814099,354.000629,190.002244,163.998385,1.000002,0.53673,0.463272,194.112833,0.548341,54.834036,0.80791,143,0.135593,24,0.864407,153,0.19209,34,0.856287,0.80791,0.831395,0.673392,0.915893,0.921288,0.836158,0.163842,0.836158,0.163842,0.837235,0.836158,0.836027,0.673392,0.915893,0.912994,0.836027,0.836158,0.262,0,0.260426,0.000254,260.426,0.254,23007,862635,101096,99.717514,88.559322,?,?
'data_all-weka.filters.unsupervised.attribute.Remove-R8,30-33-weka.filters.unsupervised.attribute.Remove-R27-28-weka.filters.unsupervised.attribute.NumericToNominal-R1,2,4,5,6,8-11,13-18,20-weka.filters.supervised.instance.StratifiedRemoveFolds-S0-V-N5-F1',8,5,weka.classifiers.functions.Logistic,'-R 3.0 -M -1 -num-decimal-places 4',3932117032546553727,20261008.1419,3185,354,284,70,0,80.225989,19.774011,0,0.60452,0.241998,0.354533,48.399623,70.906608,354.000629,195.645109,158.355519,1.000002,0.55267,0.447332,190.644414,0.538544,53.854259,0.734463,130,0.129944,23,0.870056,154,0.265537,47,0.849673,0.734463,0.787879,0.610155,0.900508,0.919225,0.80226,0.19774,0.80226,0.19774,0.807921,0.80226,0.801347,0.610155,0.900508,0.901556,0.801347,0.80226,0.281,0,0.278092,0.000241,278.092,0.241,23007,862635,101096,100,86.016949,?,?
'data_all-weka.filters.unsupervised.attribute.Remove-R8,30-33-weka.filters.unsupervised.attribute.Remove-R27-28-weka.filters.unsupervised.attribute.NumericToNominal-R1,2,4,5,6,8-11,13-18,20-weka.filters.supervised.instance.StratifiedRemoveFolds-S0-V-N5-F1',8,6,weka.classifiers.functions.Logistic,'-R 3.0 -M -1 -num-decimal-places 4',3932117032546553727,20261008.1419,3185,354,291,63,0,82.20339,17.79661,0,0.644068,0.251231,0.365101,50.246152,73.020131,354.000629,217.287186,136.713443,1.000002,0.613806,0.386196,184.578443,0.521408,52.140711,0.774011,137,0.129944,23,0.870056,154,0.225989,40,0.85625,0.774011,0.813056,0.647059,0.887708,0.900503,0.822034,0.177966,0.822034,0.177966,0.825032,0.822034,0.821623,0.647059,0.887708,0.885735,0.821623,0.822034,0.279,0,0.27698,0.000258,276.98,0.258,23007,862635,101096,98.870056,84.745763,?,?
'data_all-weka.filters.unsupervised.attribute.Remove-R8,30-33-weka.filters.unsupervised.attribute.Remove-R27-28-weka.filters.unsupervised.attribute.NumericToNominal-R1,2,4,5,6,8-11,13-18,20-weka.filters.supervised.instance.StratifiedRemoveFolds-S0-V-N5-F1',8,7,weka.classifiers.functions.Logistic,'-R 3.0 -M -1 -num-decimal-places 4',3932117032546553727,20261008.1419,3185,354,293,61,0,82.768362,17.231638,0,0.655367,0.242592,0.350137,48.518366,70.02727,354.000629,201.073403,152.927226,1.000002,0.568004,0.431998,191.762226,0.541701,54.170024,0.813559,144,0.158192,28,0.841808,149,0.186441,33,0.837209,0.813559,0.825215,0.655629,0.900731,0.914019,0.827684,0.172316,0.827684,0.172316,0.827945,0.827684,0.827649,0.655629,0.900731,0.896827,0.827649,0.827684,0.265,0,0.263952,0.000256,263.952,0.256,23007,862635,101096,98.870056,85.59322,?,?
'data_all-weka.filters.unsupervised.attribute.Remove-R8,30-33-weka.filters.unsupervised.attribute.Remove-R27-28-weka.filters.unsupervised.attribute.NumericToNominal-R1,2,4,5,6,8-11,13-18,20-weka.filters.supervised.instance.StratifiedRemoveFolds-S0-V-N5-F1',8,8,weka.classifiers.functions.Logistic,'-R 3.0 -M -1 -num-decimal-places 4',3932117032546553727,20261008.1419,3185,354,282,72,0,79.661017,20.338983,0,0.593337,0.268866,0.379406,53.773477,75.881478,353.99751,228.574949,125.422562,0.999993,0.645692,0.354301,171.81249,0.485346,48.534943,0.769663,137,0.176136,31,0.823864,145,0.230337,41,0.815476,0.769663,0.791908,0.594286,0.871904,0.890597,0.79661,0.203084,0.796916,0.20339,0.797624,0.79661,0.79648,0.594286,0.871904,0.867313,0.796506,0.79661,0.282,0,0.28138,0.000243,281.38,0.243,23007,862635,101096,98.587571,86.864407,?,?
'data_all-weka.filters.unsupervised.attribute.Remove-R8,30-33-weka.filters.unsupervised.attribute.Remove-R27-28-weka.filters.unsupervised.attribute.NumericToNominal-R1,2,4,5,6,8-11,13-18,20-weka.filters.supervised.instance.StratifiedRemoveFolds-S0-V-N5-F1',8,9,weka.classifiers.functions.Logistic,'-R 3.0 -M -1 -num-decimal-places 4',3932117032546553727,20261008.1419,3185,354,300,54,0,84.745763,15.254237,0,0.695022,0.243635,0.344795,48.727214,68.959322,353.99751,191.117707,162.879803,0.999993,0.539881,0.460112,191.643256,0.541365,54.136894,0.814607,145,0.119318,21,0.880682,155,0.185393,33,0.873494,0.814607,0.843023,0.696624,0.911485,0.924356,0.847458,0.152169,0.847831,0.152542,0.84912,0.847458,0.847311,0.696624,0.911485,0.9112,0.847336,0.847458,0.274,0,0.273541,0.000248,273.541,0.248,23007,862635,101096,99.435028,87.00565,?,?
'data_all-weka.filters.unsupervised.attribute.Remove-R8,30-33-weka.filters.unsupervised.attribute.Remove-R27-28-weka.filters.unsupervised.attribute.NumericToNominal-R1,2,4,5,6,8-11,13-18,20-weka.filters.supervised.instance.StratifiedRemoveFolds-S0-V-N5-F1',8,10,weka.classifiers.functions.Logistic,'-R 3.0 -M -1 -num-decimal-places 4',3932117032546553727,20261008.1419,3186,353,280,73,0,79.320113,20.679887,0,0.586538,0.280391,0.38201,56.078334,76.402145,352.998591,229.969546,123.029045,0.999996,0.651472,0.348524,163.672537,0.463662,46.366343,0.734463,130,0.147727,26,0.852273,150,0.265537,47,0.833333,0.734463,0.780781,0.590732,0.870185,0.887572,0.793201,0.206465,0.793535,0.206799,0.797479,0.793201,0.792502,0.590732,0.870185,0.863672,0.792535,0.793201,0.272,0,0.270413,0.000237,270.413,0.237,23007,862904,100827,99.433428,89.093484,?,?
'data_all-weka.filters.unsupervised.attribute.Remove-R8,30-33-weka.filters.unsupervised.attribute.Remove-R27-28-weka.filters.unsupervised.attribute.NumericToNominal-R1,2,4,5,6,8-11,13-18,20-weka.filters.supervised.instance.StratifiedRemoveFolds-S0-V-N5-F1',9,1,weka.classifiers.functions.Logistic,'-R 3.0 -M -1 -num-decimal-places 4',3932117032546553727,20261008.1419,3185,354,286,68,0,80.79096,19.20904,0,0.615819,0.248665,0.354832,49.732924,70.966252,354.000629,196.001043,157.999585,1.000002,0.553675,0.446327,185.965898,0.525327,52.532646,0.762712,135,0.146893,26,0.853107,151,0.237288,42,0.838509,0.762712,0.798817,0.618351,0.899103,0.917651,0.80791,0.19209,0.80791,0.19209,0.810446,0.80791,0.807516,0.618351,0.899103,0.902389,0.807516,0.80791,0.274,0,0.271864,0.000269,271.864,0.269,23007,862635,101096,99.717514,86.299435,?,?
'data_all-weka.filters.unsupervised.attribute.Remove-R8,30-33-weka.filters.unsupervised.attribute.Remove-R27-28-weka.filters.unsupervised.attribute.NumericToNominal-R1,2,4,5,6,8-11,13-18,20-weka.filters.supervised.instance.StratifiedRemoveFolds-S0-V-N5-F1',9,2,weka.classifiers.functions.Logistic,'-R 3.0 -M -1 -num-decimal-places 4',3932117032546553727,20261008.1419,3185,354,293,61,0,82.768362,17.231638,0,0.655367,0.252187,0.356432,50.437416,71.286312,354.000629,207.156553,146.844075,1.000002,0.585188,0.414814,185.300842,0.523449,52.344778,0.774011,137,0.118644,21,0.881356,156,0.225989,40,0.867089,0.774011,0.81791,0.659176,0.893964,0.905204,0.827684,0.172316,0.827684,0.172316,0.831503,0.827684,0.827186,0.659176,0.893964,0.892633,0.827186,0.827684,0.256,0.001,0.256223,0.000246,256.223,0.246,23007,862635,101096,98.870056,86.864407,?,?
'data_all-weka.filters.unsupervised.attribute.Remove-R8,30-33-weka.filters.unsupervised.attribute.Remove-R27-28-weka.filters.unsupervised.attribute.NumericToNominal-R1,2,4,5,6,8-11,13-18,20-weka.filters.supervised.instance.StratifiedRemoveFolds-S0-V-N5-F1',9,3,weka.classifiers.functions.Logistic,'-R 3.0 -M -1 -num-decimal-places 4',3932117032546553727,20261008.1419,3185,354,298,56,0,84.180791,15.819209,0,0.683616,0.238379,0.33663,47.67571,67.325928,354.000629,187.385323,166.615305,1.000002,0.529337,0.470665,195.551385,0.552405,55.240406,0.79661,141,0.112994,20,0.887006,157,0.20339,36,0.875776,0.79661,0.83432,0.686426,0.916978,0.928281,0.841808,0.158192,0.841808,0.158192,0.844624,0.841808,0.841484,0.686426,0.916978,0.906196,0.841484,0.841808,0.269,0,0.26824,0.000262,268.24,0.262,23007,862635,101096,99.435028,88.276836,?,?
'data_all-weka.filters.unsupervised.attribute.Remove-R8,30-33-weka.filters.unsupervised.attribute.Remove-R27-28-weka.filters.unsupervised.attribute.NumericToNominal-R1,2,4,5,6,8-11,13-18,20-weka.filters.supervised.instance.StratifiedRemoveFolds-S0-V-N5-F1',9,4,weka.classifiers.functions.Logistic,'-R 3.0 -M -1 -num-decimal-places 4',3932117032546553727,20261008.1419,3185,354,277,77,0,78.248588,21.751412,0,0.564972,0.264609,0.377611,52.921759,75.522072,354.000629,221.243025,132.757604,1.000002,0.62498,0.375021,174.124365,0.491877,49.187586,0.762712,135,0.19774,35,0.80226,142,0.237288,42,0.794118,0.762712,0.778098,0.565414,0.878643,0.897463,0.782486,0.217514,0.782486,0.217514,0.782928,0.782486,0.782401,0.565414,0.878643,0.875067,0.782401,0.782486,0.275,0,0.272829,0.000238,272.829,0.238,23007,862635,101096,99.717514,86.864407,?,?
'data_all-weka.filters.unsupervised.attribute.Remove-R8,30-33-weka.filters.unsupervised.attribute.Remove-R27-28-weka.filters.unsupervised.attribute.NumericToNominal-R1,2,4,5,6,8-11,13-18,20-weka.filters.supervised.instance.StratifiedRemoveFolds-S0-V-N5-F1',9,5,weka.classifiers.functions.Logistic,'-R 3.0 -M -1 -num-decimal-places 4',3932117032546553727,20261008.1419,3185,354,296,58,0,83.615819,16.384181,0,0.672316,0.243505,0.340545,48.701065,68.108981,354.000629,190.393394,163.607234,1.000002,0.537834,0.462167,191.735456,0.541626,54.162462,0.819209,145,0.146893,26,0.853107,151,0.180791,32,0.847953,0.819209,0.833333,0.672703,0.913626,0.919955,0.836158,0.163842,0.836158,0.163842,0.836545,0.836158,0.836111,0.672703,0.913626,0.912462,0.836111,0.836158,0.28,0,0.278542,0.00029,278.542,0.29,23007,862635,101096,99.435028,87.570621,?,?
'data_all-weka.filters.unsupervised.attribute.Remove-R8,30-33-weka.filters.unsupervised.attribute.Remove-R27-28-weka.filters.unsupervised.attribute.NumericToNominal-R1,2,4,5,6,8-11,13-18,20-weka.filters.supervised.instance.StratifiedRemoveFolds-S0-V-N5-F1',9,6,weka.classifiers.functions.Logistic,'-R 3.0 -M -1 -num-decimal-places 4',3932117032546553727,20261008.1419,3185,354,291,63,0,82.20339,17.79661,0,0.644068,0.265275,0.374352,53.05505,74.870258,354.000629,223.645451,130.355177,1.000002,0.631767,0.368235,175.335912,0.495299,49.529831,0.80226,142,0.158192,28,0.841808,149,0.19774,35,0.835294,0.80226,0.818444,0.644572,0.871876,0.898058,0.822034,0.177966,0.822034,0.177966,0.822538,0.822034,0.821964,0.644572,0.871876,0.866741,0.821964,0.822034,0.263,0,0.262075,0.000372,262.075,0.372,23007,862635,101096,99.152542,86.158192,?,?
'data_all-weka.filters.unsupervised.attribute.Remove-R8,30-33-weka.filters.unsupervised.attribute.Remove-R27-28-weka.filters.unsupervised.attribute.NumericToNominal-R1,2,4,5,6,8-11,13-18,20-weka.filters.supervised.instance.StratifiedRemoveFolds-S0-V-N5-F1',9,7,weka.classifiers.functions.Logistic,'-R 3.0 -M -1 -num-decimal-places 4',3932117032546553727,20261008.1419,3185,354,286,68,0,80.79096,19.20904,0,0.615819,0.253291,0.362743,50.658149,72.548471,354.000629,207.491976,146.508653,1.000002,0.586136,0.413866,183.099181,0.517229,51.722841,0.728814,129,0.112994,20,0.887006,157,0.271186,48,0.865772,0.728814,0.791411,0.623672,0.897411,0.906631,0.80791,0.19209,0.80791,0.19209,0.815813,0.80791,0.8067,0.623672,0.897411,0.900191,0.8067,0.80791,0.259,0.001,0.259377,0.000288,259.377,0.288,23007,862635,101096,99.435028,87.146893,?,?
'data_all-weka.filters.unsupervised.attribute.Remove-R8,30-33-weka.filters.unsupervised.attribute.Remove-R27-28-weka.filters.unsupervised.attribute.NumericToNominal-R1,2,4,5,6,8-11,13-18,20-weka.filters.supervised.instance.StratifiedRemoveFolds-S0-V-N5-F1',9,8,weka.classifiers.functions.Logistic,'-R 3.0 -M -1 -num-decimal-places 4',3932117032546553727,20261008.1419,3185,354,303,51,0,85.59322,14.40678,0,0.711993,0.238605,0.335517,47.721275,67.103734,353.99751,182.654205,171.343305,0.999993,0.515972,0.484021,196.246196,0.554368,55.437168,0.814607,145,0.102273,18,0.897727,158,0.185393,33,0.889571,0.814607,0.85044,0.714561,0.915986,0.931888,0.855932,0.143598,0.856402,0.144068,0.858574,0.855932,0.855708,0.714561,0.915986,0.917135,0.855738,0.855932,0.276,0,0.275114,0.000266,275.114,0.266,23007,862635,101096,100,87.570621,?,?
'data_all-weka.filters.unsupervised.attribute.Remove-R8,30-33-weka.filters.unsupervised.attribute.Remove-R27-28-weka.filters.unsupervised.attribute.NumericToNominal-R1,2,4,5,6,8-11,13-18,20-weka.filters.supervised.instance.StratifiedRemoveFolds-S0-V-N5-F1',9,9,weka.classifiers.functions.Logistic,'-R 3.0 -M -1 -num-decimal-places 4',3932117032546553727,20261008.1419,3185,354,289,65,0,81.638418,18.361582,0,0.63312,0.252488,0.363022,50.497893,72.604747,353.99751,212.775043,141.222467,0.999993,0.601059,0.398934,184.46536,0.521089,52.109225,0.730337,130,0.096591,17,0.903409,159,0.269663,48,0.884354,0.730337,0.8,0.64304,0.883587,0.910328,0.816384,0.182638,0.817362,0.183616,0.826563,0.816384,0.815058,0.64304,0.883587,0.86934,0.815144,0.816384,0.272,0,0.270354,0.000263,270.354,0.263,23007,862635,101096,98.870056,86.864407,?,?
'data_all-weka.filters.unsupervised.attribute.Remove-R8,30-33-weka.filters.unsupervised.attribute.Remove-R27-28-weka.filters.unsupervised.attribute.NumericToNominal-R1,2,4,5,6,8-11,13-18,20-weka.filters.supervised.instance.StratifiedRemoveFolds-S0-V-N5-F1',9,10,weka.classifiers.functions.Logistic,'-R 3.0 -M -1 -num-decimal-places 4',3932117032546553727,20261008.1419,3186,353,291,62,0,82.436261,17.563739,0,0.648801,0.243091,0.350557,48.618348,70.111686,352.998591,203.199697,149.798893,0.999996,0.575637,0.424359,190.753812,0.540379,54.038123,0.785311,139,0.136364,24,0.863636,152,0.214689,38,0.852761,0.785311,0.817647,0.650851,0.901997,0.919108,0.824363,0.175416,0.824584,0.175637,0.826455,0.824363,0.824106,0.650851,0.901997,0.887077,0.824124,0.824363,0.279,0,0.278649,0.000264,278.649,0.264,23007,862904,100827,98.866856,86.11898,?,?
'data_all-weka.filters.unsupervised.attribute.Remove-R8,30-33-weka.filters.unsupervised.attribute.Remove-R27-28-weka.filters.unsupervised.attribute.NumericToNominal-R1,2,4,5,6,8-11,13-18,20-weka.filters.supervised.instance.StratifiedRemoveFolds-S0-V-N5-F1',10,1,weka.classifiers.functions.Logistic,'-R 3.0 -M -1 -num-decimal-places 4',3932117032546553727,20261008.1419,3185,354,285,69,0,80.508475,19.491525,0,0.610169,0.256234,0.364074,51.246778,72.814663,354.000629,209.466122,144.534507,1.000002,0.591712,0.40829,181.173076,0.511788,51.178744,0.757062,134,0.146893,26,0.853107,151,0.242938,43,0.8375,0.757062,0.795252,0.613003,0.89339,0.906712,0.805085,0.194915,0.805085,0.194915,0.807925,0.805085,0.804634,0.613003,0.89339,0.893862,0.804634,0.805085,0.28,0,0.279365,0.000246,279.365,0.246,23007,862635,101096,98.870056,87.146893,?,?
'data_all-weka.filters.unsupervised.attribute.Remove-R8,30-33-weka.filters.unsupervised.attribute.Remove-R27-28-weka.filters.unsupervised.attribute.NumericToNominal-R1,2,4,5,6,8-11,13-18,20-weka.filters.supervised.instance.StratifiedRemoveFolds-S0-V-N5-F1',10,2,weka.classifiers.functions.Logistic,'-R 3.0 -M -1 -num-decimal-places 4',3932117032546553727,20261008.1419,3185,354,301,53,0,85.028249,14.971751,0,0.700565,0.226257,0.330756,45.251341,66.151135,354.000629,179.106007,174.894622,1.000002,0.505949,0.494053,203.337434,0.5744,57.439851,0.813559,144,0.112994,20,0.887006,157,0.186441,33,0.878049,0.813559,0.844575,0.702462,0.923489,0.93668,0.850282,0.149718,0.850282,0.149718,0.852182,0.850282,0.85008,0.702462,0.923489,0.915193,0.85008,0.850282,0.271,0,0.271084,0.000264,271.084,0.264,23007,862635,101096,99.435028,84.745763,?,?
'data_all-weka.filters.unsupervised.attribute.Remove-R8,30-33-weka.filters.unsupervised.attribute.Remove-R27-28-weka.filters.unsupervised.attribute.NumericToNominal-R1,2,4,5,6,8-11,13-18,20-weka.filters.supervised.instance.StratifiedRemoveFolds-S0-V-N5-F1',10,3,weka.classifiers.functions.Logistic,'-R 3.0 -M -1 -num-decimal-places 4',3932117032546553727,20261008.1419,3185,354,286,68,0,80.79096,19.20904,0,0.615819,0.259732,0.367393,51.946445,73.478425,354.000629,210.146709,143.85392,1.000002,0.593635,0.406367,178.897673,0.505361,50.535976,0.779661,138,0.163842,29,0.836158,148,0.220339,39,0.826347,0.779661,0.802326,0.616804,0.883846,0.907217,0.80791,0.19209,0.80791,0.19209,0.808896,0.80791,0.807756,0.616804,0.883846,0.882595,0.807756,0.80791,0.272,0,0.271146,0.000257,271.146,0.257,23007,862635,101096,100,87.99435,?,?
'data_all-weka.filters.unsupervised.attribute.Remove-R8,30-33-weka.filters.unsupervised.attribute.Remove-R27-28-weka.filters.unsupervised.attribute.NumericToNominal-R1,2,4,5,6,8-11,13-18,20-weka.filters.supervised.instance.StratifiedRemoveFolds-S0-V-N5-F1',10,4,weka.classifiers.functions.Logistic,'-R 3.0 -M -1 -num-decimal-places 4',3932117032546553727,20261008.1419,3185,354,290,64,0,81.920904,18.079096,0,0.638418,0.249684,0.359889,49.936825,71.977653,354.000629,213.386594,140.614035,1.000002,0.602787,0.397215,186.270997,0.526189,52.618832,0.813559,144,0.175141,31,0.824859,146,0.186441,33,0.822857,0.813559,0.818182,0.638459,0.895592,0.901018,0.819209,0.180791,0.819209,0.180791,0.81925,0.819209,0.819203,0.638459,0.895592,0.888663,0.819203,0.819209,0.282,0,0.281377,0.000244,281.377,0.244,23007,862635,101096,98.587571,85.451977,?,?
'data_all-weka.filters.unsupervised.attribute.Remove-R8,30-33-weka.filters.unsupervised.attribute.Remove-R27-28-weka.filters.unsupervised.attribute.NumericToNominal-R1,2,4,5,6,8-11,13-18,20-weka.filters.supervised.instance.StratifiedRemoveFolds-S0-V-N5-F1',10,5,weka.classifiers.functions.Logistic,'-R 3.0 -M -1 -num-decimal-places 4',3932117032546553727,20261008.1419,3185,354,284,70,0,80.225989,19.774011,0,0.60452,0.25963,0.362689,51.926089,72.537792,354.000629,212.252791,141.747838,1.000002,0.599584,0.400418,179.138729,0.506042,50.604071,0.734463,130,0.129944,23,0.870056,154,0.265537,47,0.849673,0.734463,0.787879,0.610155,0.888251,0.911323,0.80226,0.19774,0.80226,0.19774,0.807921,0.80226,0.801347,0.610155,0.888251,0.880016,0.801347,0.80226,0.279,0,0.278546,0.000262,278.546,0.262,23007,862635,101096,99.435028,88.276836,?,?
'data_all-weka.filters.unsupervised.attribute.Remove-R8,30-33-weka.filters.unsupervised.attribute.Remove-R27-28-weka.filters.unsupervised.attribute.NumericToNominal-R1,2,4,5,6,8-11,13-18,20-weka.filters.supervised.instance.StratifiedRemoveFolds-S0-V-N5-F1',10,6,weka.classifiers.functions.Logistic,'-R 3.0 -M -1 -num-decimal-places 4',3932117032546553727,20261008.1419,3185,354,295,59,0,83.333333,16.666667,0,0.666667,0.251314,0.3536,50.262894,70.719931,354.000629,200.864619,153.13601,1.000002,0.567414,0.432588,186.299265,0.526269,52.626817,0.768362,136,0.101695,18,0.898305,159,0.231638,41,0.883117,0.768362,0.821752,0.672367,0.895432,0.918211,0.833333,0.166667,0.833333,0.166667,0.839058,0.833333,0.832627,0.672367,0.895432,0.889338,0.832627,0.833333,0.268,0,0.267584,0.00024,267.584,0.24,23007,862635,101096,99.717514,87.711864,?,?
'data_all-weka.filters.unsupervised.attribute.Remove-R8,30-33-weka.filters.unsupervised.attribute.Remove-R27-28-weka.filters.unsupervised.attribute.NumericToNominal-R1,2,4,5,6,8-11,13-18,20-weka.filters.supervised.instance.StratifiedRemoveFolds-S0-V-N5-F1',10,7,weka.classifiers.functions.Logistic,'-R 3.0 -M -1 -num-decimal-places 4',3932117032546553727,20261008.1419,3185,354,299,55,0,84.463277,15.536723,0,0.689266,0.246204,0.347328,49.240886,69.465473,354.000629,197.473908,156.52672,1.000002,0.557836,0.442166,190.10715,0.537026,53.702489,0.847458,150,0.158192,28,0.841808,149,0.152542,27,0.842697,0.847458,0.84507,0.689277,0.906764,0.919027,0.844633,0.155367,0.844633,0.155367,0.844644,0.844633,0.844632,0.689277,0.906764,0.90554,0.844632,0.844633,0.278,0,0.2778,0.000248,277.8,0.248,23007,862635,101096,98.870056,86.440678,?,?
'data_all-weka.filters.unsupervised.attribute.Remove-R8,30-33-weka.filters.unsupervised.attribute.Remove-R27-28-weka.filters.unsupervised.attribute.NumericToNominal-R1,2,4,5,6,8-11,13-18,20-weka.filters.supervised.instance.StratifiedRemoveFolds-S0-V-N5-F1',10,8,weka.classifiers.functions.Logistic,'-R 3.0 -M -1 -num-decimal-places 4',3932117032546553727,20261008.1419,3185,354,286,68,0,80.79096,19.20904,0,0.616101,0.261869,0.37436,52.374084,74.872439,353.99751,219.237877,134.759633,0.999993,0.619316,0.380677,176.562479,0.498764,49.876757,0.741573,132,0.125,22,0.875,154,0.258427,46,0.857143,0.741573,0.795181,0.621835,0.877075,0.898475,0.80791,0.191337,0.808663,0.19209,0.813818,0.80791,0.807097,0.621835,0.877075,0.875868,0.807165,0.80791,0.261,0,0.260873,0.00025,260.873,0.25,23007,862635,101096,99.435028,86.581921,?,?
'data_all-weka.filters.unsupervised.attribute.Remove-R8,30-33-weka.filters.unsupervised.attribute.Remove-R27-28-weka.filters.unsupervised.attribute.NumericToNominal-R1,2,4,5,6,8-11,13-18,20-weka.filters.supervised.instance.StratifiedRemoveFolds-S0-V-N5-F1',10,9,weka.classifiers.functions.Logistic,'-R 3.0 -M -1 -num-decimal-places 4',3932117032546553727,20261008.1419,3185,354,308,46,0,87.00565,12.99435,0,0.740221,0.223598,0.321336,44.719857,64.267475,353.99751,176.182192,177.815318,0.999993,0.49769,0.502303,206.676321,0.583831,58.383552,0.831461,148,0.090909,16,0.909091,160,0.168539,30,0.902439,0.831461,0.865497,0.742545,0.925945,0.937684,0.870056,0.129505,0.870495,0.129944,0.872443,0.870056,0.869882,0.742545,0.925945,0.916794,0.869907,0.870056,0.275,0,0.27438,0.00024,274.38,0.24,23007,862635,101096,98.870056,86.299435,?,?
'data_all-weka.filters.unsupervised.attribute.Remove-R8,30-33-weka.filters.unsupervised.attribute.Remove-R27-28-weka.filters.unsupervised.attribute.NumericToNominal-R1,2,4,5,6,8-11,13-18,20-weka.filters.supervised.instance.StratifiedRemoveFolds-S0-V-N5-F1',10,10,weka.classifiers.functions.Logistic,'-R 3.0 -M -1 -num-decimal-places 4',3932117032546553727,20261008.1419,3186,353,291,62,0,82.436261,17.563739,0,0.648824,0.259246,0.361604,51.849377,72.321052,352.998591,207.723331,145.275259,0.999996,0.588451,0.411545,179.71331,0.509103,50.910489,0.774011,137,0.125,22,0.875,154,0.225989,40,0.861635,0.774011,0.815476,0.652223,0.891275,0.91018,0.824363,0.175351,0.824649,0.175637,0.827821,0.824363,0.82393,0.652223,0.891275,0.88541,0.823954,0.824363,0.281,0,0.278549,0.000255,278.549,0.255,23007,862904,100827,99.716714,88.951841,?,?
